#------------------------------------------------------------------------------
#$Date: 2016-03-26 14:51:57 +0200 (Sat, 26 Mar 2016) $
#$Revision: 180279 $
#$URL: svn://www.crystallography.net/cod/cif/7/11/65/7116539.cif $
#------------------------------------------------------------------------------
#
# This file is available in the Crystallography Open Database (COD),
# http://www.crystallography.net/
#
# All data on this site have been placed in the public domain by the
# contributors.
#
data_7116539
loop_
_publ_author_name
'Luigi R. Nassimbeni'
'Nikoletta B. Bathori'
'Leena Desiree Patel'
'Hong Su'
'Edwin Weber'
_publ_section_title
;
 Separation of xylenes by enclathration
;
_journal_name_full               Chem.Commun.
_journal_page_first              3627
_journal_paper_doi               10.1039/C4cc05329J
_journal_volume                  51
_journal_year                    2015
_chemical_formula_sum            'C29 H21'
_chemical_formula_weight         369.46
_chemical_name_systematic
;
 ?
;
_space_group_crystal_system      monoclinic
_space_group_IT_number           14
_space_group_name_Hall           '-P 2ybc'
_space_group_name_H-M_alt        'P 1 21/c 1'
_symmetry_space_group_name_Hall  '-P 2ybc'
_symmetry_space_group_name_H-M   'P 1 21/c 1'
_atom_sites_solution_hydrogens   heavy
_audit_creation_method           SHELXL-2013
_cell_angle_alpha                90
_cell_angle_beta                 99.76(3)
_cell_angle_gamma                90
_cell_formula_units_Z            4
_cell_length_a                   13.911(3)
_cell_length_b                   9.1555(18)
_cell_length_c                   16.101(3)
_cell_measurement_reflns_used    5057
_cell_measurement_temperature    173(2)
_cell_measurement_theta_max      28.370
_cell_measurement_theta_min      2.567
_cell_volume                     2021.0(7)
_computing_structure_refinement  'SHELXL-2013 (Sheldrick, 2013)'
_diffrn_ambient_temperature      173(2)
_diffrn_measured_fraction_theta_full 0.999
_diffrn_measured_fraction_theta_max 0.998
_diffrn_radiation_type           MoK\a
_diffrn_radiation_wavelength     0.71073
_diffrn_reflns_av_R_equivalents  0.0351
_diffrn_reflns_av_unetI/netI     0.0300
_diffrn_reflns_Laue_measured_fraction_full 0.999
_diffrn_reflns_Laue_measured_fraction_max 0.998
_diffrn_reflns_limit_h_max       17
_diffrn_reflns_limit_h_min       -18
_diffrn_reflns_limit_k_max       12
_diffrn_reflns_limit_k_min       -12
_diffrn_reflns_limit_l_max       21
_diffrn_reflns_limit_l_min       -21
_diffrn_reflns_number            21399
_diffrn_reflns_point_group_measured_fraction_full 0.999
_diffrn_reflns_point_group_measured_fraction_max 0.998
_diffrn_reflns_theta_full        25.242
_diffrn_reflns_theta_max         28.370
_diffrn_reflns_theta_min         2.567
_exptl_absorpt_coefficient_mu    0.069
_exptl_absorpt_correction_type   none
_exptl_crystal_colour            colorless
_exptl_crystal_density_diffrn    1.214
_exptl_crystal_description       chunk
_exptl_crystal_F_000             780
_exptl_crystal_size_max          0.440
_exptl_crystal_size_mid          0.400
_exptl_crystal_size_min          0.150
_refine_diff_density_max         0.222
_refine_diff_density_min         -0.178
_refine_diff_density_rms         0.035
_refine_ls_extinction_expression Fc^*^=kFc[1+0.001xFc^2^\l^3^/sin(2\q)]^-1/4^
_refine_ls_extinction_method     SHELXL
_refine_ls_goodness_of_fit_ref   1.050
_refine_ls_hydrogen_treatment    noref
_refine_ls_matrix_type           full
_refine_ls_number_parameters     272
_refine_ls_number_reflns         5057
_refine_ls_number_restraints     0
_refine_ls_restrained_S_all      1.050
_refine_ls_R_factor_all          0.0643
_refine_ls_R_factor_gt           0.0451
_refine_ls_shift/su_max          0.000
_refine_ls_shift/su_mean         0.000
_refine_ls_structure_factor_coef Fsqd
_refine_ls_weighting_details
'w=1/[\s^2^(Fo^2^)+(0.1000P)^2^] where P=(Fo^2^+2Fc^2^)/3'
_refine_ls_weighting_scheme      calc
_refine_ls_wR_factor_gt          0.1369
_refine_ls_wR_factor_ref         0.1539
_reflns_Friedel_coverage         0.000
_reflns_number_gt                3796
_reflns_number_total             5057
_reflns_threshold_expression     'I > 2\s(I)'
_cod_data_source_file            c4cc05329j2.cif
_cod_data_source_block           H2pxylene
_cod_database_code               7116539
#BEGIN Tags that were not found in dictionaries:
_shelx_space_group_comment
;
The symmetry employed for this shelxl refinement is uniquely defined
by the following loop, which should always be used as a source of
symmetry information in preference to the above space-group names.
They are only intended as comments.
;
_shelx_estimated_absorpt_t_min   0.970
_shelx_estimated_absorpt_t_max   0.990
_shelxl_version_number           2013-3
_shelx_res_file
;
REM  w106pxy in P2(1)/c
REM R1 =  0.0444 for   3797 Fo > 4sig(Fo)  and  0.0635 for all   5057 data
REM    266 parameters refined using      0 restraints
REM Highest difference peak  0.212,  deepest hole -0.169,  1-sigma level  0.034
REM  w106pxy in P2(1)/c
REM R1 =  0.0443 for    3796 Fo > 4sig(Fo)  and  0.0634 for all    5057 data
REM    272 parameters refined using      0 restraints
REM Highest difference peak  0.212,  deepest hole -0.169,  1-sigma level  0.034
TITL w106pxy in P2(1)/c
CELL 0.71073 13.9106 9.1555 16.1015 90.000 99.762 90.000
ZERR 4.0000 0.0028 0.0018 0.0032 0.000 0.030 0.000
LATT 1
SYMM -X, 0.5+Y, 0.5-Z
SFAC C H
UNIT 116 84
MERG 2
FMAP 2
GRID
PLAN 20
TEMP -100
SIZE 0.44 0.4 0.15
L.S. 20
ACTA
WGHT    0.100000
EXTI    0.003736
FVAR       0.19164
C1    1    0.290729    0.613261    0.294311    11.00000    0.02945    0.02883 =
         0.02696    0.00067    0.00249    0.00155
C2    1    0.264548    0.774083    0.296510    11.00000    0.02713    0.02885 =
         0.03460    0.00140    0.00584   -0.00042
C3    1    0.231235    0.864971    0.229435    11.00000    0.03593    0.03827 =
         0.03995    0.00880    0.00543    0.00261
AFIX  43
H3    2    0.223944    0.829666    0.173235    11.00000   -1.20000
AFIX   0
C4    1    0.208614    1.008334    0.245307    11.00000    0.04035    0.03529 =
         0.06505    0.01238    0.00513    0.00404
AFIX  43
H4    2    0.186451    1.072425    0.199671    11.00000   -1.20000
AFIX   0
C5    1    0.218047    1.058614    0.326867    11.00000    0.03883    0.02936 =
         0.08175   -0.00337    0.00756    0.00363
AFIX  43
H5    2    0.201181    1.156882    0.336755    11.00000   -1.20000
AFIX   0
C6    1    0.251588    0.968884    0.394669    11.00000    0.03625    0.04006 =
         0.05699   -0.01631    0.00881   -0.00017
AFIX  43
H6    2    0.257938    1.004648    0.450720    11.00000   -1.20000
AFIX   0
C7    1    0.275929    0.824754    0.379139    11.00000    0.02633    0.03459 =
         0.03654   -0.00458    0.00629   -0.00219
C8    1    0.315024    0.706081    0.435964    11.00000    0.02664    0.03780 =
         0.02967   -0.00296    0.00572   -0.00482
C9    1    0.342823    0.702136    0.522940    11.00000    0.03475    0.05591 =
         0.03015   -0.00671    0.00554   -0.00706
AFIX  43
H9    2    0.336926    0.786495    0.556061    11.00000   -1.20000
AFIX   0
C10   1    0.379147    0.573517    0.560345    11.00000    0.03828    0.06930 =
         0.02712    0.00744    0.00110   -0.00897
AFIX  43
H10   2    0.398215    0.569356    0.619812    11.00000   -1.20000
AFIX   0
C11   1    0.388149    0.450911    0.512579    11.00000    0.04079    0.05166 =
         0.04022    0.01895   -0.00261   -0.00617
AFIX  43
H11   2    0.413573    0.363484    0.539567    11.00000   -1.20000
AFIX   0
C12   1    0.360470    0.453389    0.425213    11.00000    0.03792    0.03600 =
         0.03812    0.00478    0.00023   -0.00292
AFIX  43
H12   2    0.366597    0.368662    0.392452    11.00000   -1.20000
AFIX   0
C13   1    0.324085    0.581344    0.387545    11.00000    0.02624    0.03418 =
         0.02733    0.00113    0.00162   -0.00400
C14   1    0.204562    0.519717    0.253902    11.00000    0.03436    0.02665 =
         0.02655    0.00421   -0.00174    0.00142
C15   1    0.113506    0.507678    0.275953    11.00000    0.03510    0.03817 =
         0.03729    0.00739    0.00276    0.00148
AFIX  43
H15   2    0.097318    0.561493    0.322108    11.00000   -1.20000
AFIX   0
C16   1    0.045803    0.415145    0.229264    11.00000    0.03689    0.04547 =
         0.05267    0.01692   -0.00454   -0.00582
AFIX  43
H16   2   -0.016960    0.404599    0.244351    11.00000   -1.20000
AFIX   0
C17   1    0.068182    0.338373    0.161402    11.00000    0.05437    0.03758 =
         0.04690    0.00760   -0.01448   -0.01217
AFIX  43
H17   2    0.020659    0.276173    0.130089    11.00000   -1.20000
AFIX   0
C18   1    0.158989    0.351133    0.138608    11.00000    0.06220    0.02851 =
         0.03369   -0.00032   -0.00730   -0.00087
AFIX  43
H18   2    0.174160    0.299042    0.091465    11.00000   -1.20000
AFIX   0
C19   1    0.227893    0.441282    0.185621    11.00000    0.04328    0.02353 =
         0.02811    0.00342   -0.00241    0.00497
C20   1    0.328448    0.476239    0.176834    11.00000    0.04273    0.02900 =
         0.02938    0.00462    0.00428    0.01166
C21   1    0.385753    0.427157    0.119621    11.00000    0.06254    0.04428 =
         0.03489    0.00211    0.00994    0.02552
AFIX  43
H21   2    0.360493    0.358881    0.077044    11.00000   -1.20000
AFIX   0
C22   1    0.479684    0.478979    0.125579    11.00000    0.05675    0.06749 =
         0.04556    0.01264    0.02149    0.03258
AFIX  43
H22   2    0.519440    0.445902    0.086888    11.00000   -1.20000
AFIX   0
C23   1    0.516597    0.578551    0.187260    11.00000    0.03661    0.07022 =
         0.05330    0.01910    0.01551    0.01599
AFIX  43
H23   2    0.581519    0.613069    0.190412    11.00000   -1.20000
AFIX   0
C24   1    0.460271    0.629026    0.244772    11.00000    0.03437    0.04820 =
         0.04055    0.00637    0.00541    0.00391
AFIX  43
H24   2    0.485817    0.697776    0.286983    11.00000   -1.20000
AFIX   0
C25   1    0.366009    0.576656    0.239042    11.00000    0.03315    0.03219 =
         0.02831    0.00422    0.00405    0.00726
C26   1    0.079743    1.068032   -0.021540    11.00000    0.04101    0.06351 =
         0.03011   -0.00520    0.00403   -0.01014
H26   2    0.134261    1.117758   -0.036825    11.00000    0.06488
H27   2    0.145561    0.870928    0.019380    11.00000    0.07179
C27   1    0.087149    0.929074    0.010865    11.00000    0.03858    0.06104 =
         0.03422   -0.00984   -0.00342    0.01754
C28   1    0.007587    0.857535    0.033275    11.00000    0.06063    0.04184 =
         0.02609   -0.00242   -0.00607    0.00262
C29   1    0.015550    0.705417    0.069447    11.00000    0.12573    0.04788 =
         0.05610    0.00847   -0.01825   -0.00123
AFIX 137
H29A  2    0.019269    0.710473    0.130705    11.00000   -1.50000
H29B  2    0.074469    0.658305    0.056391    11.00000   -1.50000
H29C  2   -0.041907    0.648512    0.044776    11.00000   -1.50000
AFIX   0
HKLF 4

REM  w106pxy in P2(1)/c
REM R1 =  0.0451 for    3796 Fo > 4sig(Fo)  and  0.0643 for all    5057 data
REM    272 parameters refined using      0 restraints

END

WGHT      0.0584      0.3729

REM Highest difference peak  0.222,  deepest hole -0.178,  1-sigma level  0.035
Q1    1   0.2737  0.6963  0.2933  11.00000  0.05    0.22
Q2    1   0.0111  0.6251  0.0253  11.00000  0.05    0.22
Q3    1   0.2453  0.5752  0.2781  11.00000  0.05    0.21
Q4    1   0.2828  0.7647  0.4133  11.00000  0.05    0.21
Q5    1   0.2074  0.5034  0.2098  11.00000  0.05    0.21
Q6    1   0.3184  0.6389  0.4151  11.00000  0.05    0.21
Q7    1   0.3095  0.5888  0.3377  11.00000  0.05    0.21
Q8    1   0.3465  0.4485  0.4706  11.00000  0.05    0.20
Q9    1   0.0746  0.6822  0.1150  11.00000  0.05    0.19
Q10   1   0.2243  0.8077  0.2648  11.00000  0.05    0.18
Q11   1   0.2483  0.7993  0.3391  11.00000  0.05    0.18
Q12   1   0.3330  0.5946  0.2726  11.00000  0.05    0.18
Q13   1   0.3412  0.5572  0.1937  11.00000  0.05    0.18
Q14   1  -0.0385  0.8877  0.0114  11.00000  0.05    0.18
Q15   1   0.2850  0.8131  0.3354  11.00000  0.05    0.17
Q16   1   0.3050  0.7057  0.4745  11.00000  0.05    0.17
Q17   1   0.2624  0.8774  0.3896  11.00000  0.05    0.17
Q18   1   0.3598  0.4999  0.2184  11.00000  0.05    0.16
Q19   1   0.1936  0.4211  0.1500  11.00000  0.05    0.16
Q20   1   0.3225  0.5109  0.4089  11.00000  0.05    0.16
;
_shelx_res_checksum              1053
#END Tags that were not found in dictionaries
loop_
_space_group_symop_operation_xyz
'x, y, z'
'-x, y+1/2, -z+1/2'
'-x, -y, -z'
'x, -y-1/2, z-1/2'
loop_
_atom_site_label
_atom_site_type_symbol
_atom_site_fract_x
_atom_site_fract_y
_atom_site_fract_z
_atom_site_U_iso_or_equiv
_atom_site_adp_type
_atom_site_occupancy
_atom_site_site_symmetry_order
_atom_site_calc_flag
_atom_site_refinement_flags_posn
_atom_site_refinement_flags_adp
C1 C 0.29073(8) 0.61326(13) 0.29431(7) 0.0287(3) Uani 1 1 d . .
C2 C 0.26455(8) 0.77408(13) 0.29651(8) 0.0301(3) Uani 1 1 d . .
C3 C 0.23123(9) 0.86497(15) 0.22944(9) 0.0382(3) Uani 1 1 d . .
H3 H 0.2239 0.8297 0.1732 0.046 Uiso 1 1 calc R U
C4 C 0.20861(10) 1.00833(16) 0.24531(11) 0.0473(4) Uani 1 1 d . .
H4 H 0.1865 1.0724 0.1997 0.057 Uiso 1 1 calc R U
C5 C 0.21805(10) 1.05861(15) 0.32687(12) 0.0503(4) Uani 1 1 d . .
H5 H 0.2012 1.1569 0.3368 0.060 Uiso 1 1 calc R U
C6 C 0.25159(10) 0.96888(16) 0.39467(10) 0.0443(4) Uani 1 1 d . .
H6 H 0.2579 1.0046 0.4507 0.053 Uiso 1 1 calc R U
C7 C 0.27593(8) 0.82475(14) 0.37914(8) 0.0324(3) Uani 1 1 d . .
C8 C 0.31502(8) 0.70608(13) 0.43596(8) 0.0313(3) Uani 1 1 d . .
C9 C 0.34282(9) 0.70214(16) 0.52294(8) 0.0403(3) Uani 1 1 d . .
H9 H 0.3369 0.7865 0.5561 0.048 Uiso 1 1 calc R U
C10 C 0.37915(9) 0.57352(18) 0.56035(9) 0.0454(4) Uani 1 1 d . .
H10 H 0.3982 0.5694 0.6198 0.054 Uiso 1 1 calc R U
C11 C 0.38815(10) 0.45091(17) 0.51258(9) 0.0453(4) Uani 1 1 d . .
H11 H 0.4136 0.3635 0.5396 0.054 Uiso 1 1 calc R U
C12 C 0.36047(9) 0.45339(15) 0.42521(9) 0.0381(3) Uani 1 1 d . .
H12 H 0.3666 0.3687 0.3925 0.046 Uiso 1 1 calc R U
C13 C 0.32408(8) 0.58134(13) 0.38754(7) 0.0296(3) Uani 1 1 d . .
C14 C 0.20456(9) 0.51972(13) 0.25390(7) 0.0300(3) Uani 1 1 d . .
C15 C 0.11351(9) 0.50768(14) 0.27595(8) 0.0372(3) Uani 1 1 d . .
H15 H 0.0973 0.5615 0.3221 0.045 Uiso 1 1 calc R U
C16 C 0.04580(10) 0.41515(16) 0.22926(10) 0.0464(4) Uani 1 1 d . .
H16 H -0.0170 0.4046 0.2444 0.056 Uiso 1 1 calc R U
C17 C 0.06818(11) 0.33837(16) 0.16140(10) 0.0490(4) Uani 1 1 d . .
H17 H 0.0207 0.2762 0.1301 0.059 Uiso 1 1 calc R U
C18 C 0.15899(11) 0.35113(14) 0.13861(9) 0.0433(3) Uani 1 1 d . .
H18 H 0.1742 0.2990 0.0915 0.052 Uiso 1 1 calc R U
C19 C 0.22789(9) 0.44128(13) 0.18562(8) 0.0326(3) Uani 1 1 d . .
C20 C 0.32845(9) 0.47624(13) 0.17683(8) 0.0339(3) Uani 1 1 d . .
C21 C 0.38575(11) 0.42716(16) 0.11962(9) 0.0470(4) Uani 1 1 d . .
H21 H 0.3605 0.3589 0.0770 0.056 Uiso 1 1 calc R U
C22 C 0.47968(12) 0.47898(19) 0.12558(10) 0.0551(4) Uani 1 1 d . .
H22 H 0.5194 0.4459 0.0869 0.066 Uiso 1 1 calc R U
C23 C 0.51660(10) 0.57855(19) 0.18726(10) 0.0525(4) Uani 1 1 d . .
H23 H 0.5815 0.6131 0.1904 0.063 Uiso 1 1 calc R U
C24 C 0.46027(9) 0.62903(16) 0.24477(9) 0.0411(3) Uani 1 1 d . .
H24 H 0.4858 0.6978 0.2870 0.049 Uiso 1 1 calc R U
C25 C 0.36601(8) 0.57666(13) 0.23904(8) 0.0314(3) Uani 1 1 d . .
C26 C 0.07974(11) 1.06803(18) -0.02154(9) 0.0451(4) Uani 1 1 d . .
H26 H 0.1343(12) 1.118(2) -0.0368(12) 0.065(5) Uiso 1 1 d . .
H27 H 0.1456(13) 0.871(2) 0.0194(12) 0.072(5) Uiso 1 1 d . .
C27 C 0.08715(10) 0.92907(18) 0.01086(9) 0.0457(4) Uani 1 1 d . .
C28 C 0.00759(11) 0.85754(16) 0.03328(8) 0.0444(3) Uani 1 1 d . .
C29 C 0.01555(18) 0.70542(19) 0.06945(12) 0.0805(6) Uani 1 1 d . .
H29A H 0.0193 0.7105 0.1307 0.121 Uiso 1 1 calc R U
H29B H 0.0745 0.6583 0.0564 0.121 Uiso 1 1 calc R U
H29C H -0.0419 0.6485 0.0448 0.121 Uiso 1 1 calc R U
loop_
_atom_site_aniso_label
_atom_site_aniso_U_11
_atom_site_aniso_U_22
_atom_site_aniso_U_33
_atom_site_aniso_U_23
_atom_site_aniso_U_13
_atom_site_aniso_U_12
C1 0.0295(5) 0.0288(6) 0.0270(6) 0.0007(5) 0.0025(4) 0.0016(5)
C2 0.0271(5) 0.0289(6) 0.0346(6) 0.0014(5) 0.0058(5) -0.0004(5)
C3 0.0359(6) 0.0383(7) 0.0400(7) 0.0088(6) 0.0054(5) 0.0026(5)
C4 0.0403(7) 0.0353(7) 0.0651(10) 0.0124(7) 0.0051(7) 0.0040(6)
C5 0.0388(7) 0.0294(7) 0.0818(12) -0.0034(7) 0.0076(7) 0.0036(6)
C6 0.0363(7) 0.0401(7) 0.0570(9) -0.0163(7) 0.0088(6) -0.0002(6)
C7 0.0263(5) 0.0346(6) 0.0365(7) -0.0046(5) 0.0063(5) -0.0022(5)
C8 0.0266(5) 0.0378(7) 0.0297(6) -0.0030(5) 0.0057(4) -0.0048(5)
C9 0.0347(6) 0.0559(9) 0.0302(7) -0.0067(6) 0.0055(5) -0.0071(6)
C10 0.0383(7) 0.0693(10) 0.0271(7) 0.0074(6) 0.0011(5) -0.0090(7)
C11 0.0408(7) 0.0517(8) 0.0402(8) 0.0190(7) -0.0026(6) -0.0062(6)
C12 0.0379(6) 0.0360(7) 0.0381(7) 0.0048(5) 0.0002(5) -0.0029(5)
C13 0.0262(5) 0.0342(6) 0.0273(6) 0.0011(5) 0.0016(4) -0.0040(5)
C14 0.0344(6) 0.0267(6) 0.0266(6) 0.0042(5) -0.0017(5) 0.0014(5)
C15 0.0351(6) 0.0382(7) 0.0373(7) 0.0074(6) 0.0028(5) 0.0015(5)
C16 0.0369(7) 0.0455(8) 0.0527(9) 0.0169(7) -0.0045(6) -0.0058(6)
C17 0.0544(8) 0.0376(7) 0.0469(8) 0.0076(7) -0.0145(7) -0.0122(6)
C18 0.0622(9) 0.0285(6) 0.0337(7) -0.0003(5) -0.0073(6) -0.0009(6)
C19 0.0433(7) 0.0235(6) 0.0281(6) 0.0034(4) -0.0024(5) 0.0050(5)
C20 0.0427(6) 0.0290(6) 0.0294(6) 0.0046(5) 0.0043(5) 0.0117(5)
C21 0.0625(9) 0.0443(8) 0.0349(7) 0.0021(6) 0.0099(6) 0.0255(7)
C22 0.0568(9) 0.0675(10) 0.0456(8) 0.0126(8) 0.0215(7) 0.0326(8)
C23 0.0366(7) 0.0702(11) 0.0533(9) 0.0191(8) 0.0155(7) 0.0160(7)
C24 0.0344(6) 0.0482(8) 0.0406(7) 0.0064(6) 0.0054(5) 0.0039(6)
C25 0.0332(6) 0.0322(6) 0.0283(6) 0.0042(5) 0.0041(5) 0.0073(5)
C26 0.0410(7) 0.0635(10) 0.0301(7) -0.0052(6) 0.0040(6) -0.0101(7)
C27 0.0386(7) 0.0610(10) 0.0342(7) -0.0098(7) -0.0034(6) 0.0175(7)
C28 0.0606(8) 0.0418(8) 0.0261(6) -0.0024(6) -0.0061(6) 0.0026(7)
C29 0.1257(17) 0.0479(10) 0.0561(11) 0.0085(8) -0.0182(11) -0.0012(11)
loop_
_atom_type_symbol
_atom_type_description
_atom_type_scat_dispersion_real
_atom_type_scat_dispersion_imag
_atom_type_scat_source
C C 0.0033 0.0016 'International Tables Vol C Tables 4.2.6.8 and 6.1.1.4'
H H 0.0000 0.0000 'International Tables Vol C Tables 4.2.6.8 and 6.1.1.4'
loop_
_geom_angle_atom_site_label_1
_geom_angle_atom_site_label_2
_geom_angle_atom_site_label_3
_geom_angle
_geom_angle_site_symmetry_1
_geom_angle_site_symmetry_3
C2 C1 C25 114.75(10) . .
C2 C1 C13 101.38(10) . .
C25 C1 C13 114.16(9) . .
C2 C1 C14 112.33(9) . .
C25 C1 C14 101.28(10) . .
C13 C1 C14 113.50(10) . .
C3 C2 C7 121.04(12) . .
C3 C2 C1 128.06(12) . .
C7 C2 C1 110.88(10) . .
C2 C3 C4 118.96(13) . .
C5 C4 C3 120.37(14) . .
C4 C5 C6 121.29(13) . .
C5 C6 C7 118.69(14) . .
C2 C7 C6 119.64(12) . .
C2 C7 C8 108.65(11) . .
C6 C7 C8 131.71(12) . .
C9 C8 C13 120.28(12) . .
C9 C8 C7 131.28(12) . .
C13 C8 C7 108.43(10) . .
C10 C9 C8 118.78(13) . .
C9 C10 C11 120.86(13) . .
C10 C11 C12 120.93(13) . .
C13 C12 C11 118.47(13) . .
C12 C13 C8 120.67(12) . .
C12 C13 C1 128.76(11) . .
C8 C13 C1 110.56(10) . .
C15 C14 C19 120.57(12) . .
C15 C14 C1 128.72(11) . .
C19 C14 C1 110.71(11) . .
C14 C15 C16 118.57(13) . .
C17 C16 C15 121.09(14) . .
C18 C17 C16 120.53(13) . .
C17 C18 C19 118.96(14) . .
C18 C19 C14 120.25(13) . .
C18 C19 C20 131.27(13) . .
C14 C19 C20 108.47(11) . .
C21 C20 C25 120.11(13) . .
C21 C20 C19 131.08(13) . .
C25 C20 C19 108.80(10) . .
C22 C21 C20 119.06(15) . .
C23 C22 C21 120.65(14) . .
C22 C23 C24 121.05(14) . .
C25 C24 C23 118.36(14) . .
C24 C25 C20 120.77(12) . .
C24 C25 C1 128.50(12) . .
C20 C25 C1 110.73(10) . .
C27 C26 C28 121.22(14) . 3_575
C26 C27 C28 121.70(13) . .
C26 C28 C27 117.08(14) 3_575 .
C26 C28 C29 121.04(16) 3_575 .
C27 C28 C29 121.88(15) . .
loop_
_geom_bond_atom_site_label_1
_geom_bond_atom_site_label_2
_geom_bond_distance
_geom_bond_site_symmetry_2
C1 C2 1.5186(17) .
C1 C25 1.5221(16) .
C1 C13 1.5225(17) .
C1 C14 1.5261(17) .
C2 C3 1.3798(17) .
C2 C7 1.3925(17) .
C3 C4 1.384(2) .
C4 C5 1.377(2) .
C5 C6 1.383(2) .
C6 C7 1.3954(18) .
C7 C8 1.4645(18) .
C8 C9 1.3887(18) .
C8 C13 1.4005(17) .
C9 C10 1.379(2) .
C10 C11 1.378(2) .
C11 C12 1.394(2) .
C12 C13 1.3756(17) .
C14 C15 1.3766(17) .
C14 C19 1.3967(18) .
C15 C16 1.3892(19) .
C16 C17 1.378(2) .
C17 C18 1.379(2) .
C18 C19 1.3881(18) .
C19 C20 1.4650(18) .
C20 C21 1.3910(19) .
C20 C25 1.3943(18) .
C21 C22 1.378(2) .
C22 C23 1.381(2) .
C23 C24 1.390(2) .
C24 C25 1.3845(17) .
C26 C27 1.372(2) .
C26 C28 1.378(2) 3_575
C27 C28 1.385(2) .
C28 C26 1.378(2) 3_575
C28 C29 1.506(2) .
