#------------------------------------------------------------------------------
#$Date: 2016-03-26 15:51:30 +0200 (Sat, 26 Mar 2016) $
#$Revision: 180319 $
#$URL: svn://www.crystallography.net/cod/cif/7/15/33/7153396.cif $
#------------------------------------------------------------------------------
#
# This file is available in the Crystallography Open Database (COD),
# http://www.crystallography.net/
#
# All data on this site have been placed in the public domain by the
# contributors.
#
data_7153396
loop_
_publ_author_name
'Banide, Emilie V.'
'O'Connor, Crystal'
'Fortune, Natasha'
'Ortin, Yannick'
'Milosevic, Sandra'
'M\"uller-Bunz, Helge'
'McGlinchey, Michael J.'
_publ_section_title
;
 Syntheses, X-ray crystal structures and reactivity of fluorenylidene- and
 dibenzosuberenylidene-allenes: convenient precursors to
 dispirotetracenes, di-indenotetracenes and
 2-phenyl-11bH-dibenz[cd,h]azulene.
;
_journal_issue                   17
_journal_name_full               'Organic &amp; biomolecular chemistry'
_journal_page_first              3997
_journal_page_last               4010
_journal_paper_doi               10.1039/c004868b
_journal_volume                  8
_journal_year                    2010
_chemical_absolute_configuration unk
_chemical_formula_moiety         'C23 H16'
_chemical_formula_sum            'C23 H16'
_chemical_formula_weight         292.36
_chemical_name_systematic
;
?
;
_space_group_IT_number           19
_symmetry_cell_setting           orthorhombic
_symmetry_space_group_name_Hall  'P 2ac 2ab'
_symmetry_space_group_name_H-M   'P 21 21 21'
_atom_sites_solution_hydrogens   geom
_atom_sites_solution_primary     direct
_atom_sites_solution_secondary   difmap
_audit_creation_method           SHELXL-97
_cell_angle_alpha                90.00
_cell_angle_beta                 90.00
_cell_angle_gamma                90.00
_cell_formula_units_Z            4
_cell_length_a                   6.8227(7)
_cell_length_b                   9.1562(10)
_cell_length_c                   25.406(3)
_cell_measurement_reflns_used    5008
_cell_measurement_temperature    100(2)
_cell_measurement_theta_max      28.23
_cell_measurement_theta_min      2.36
_cell_volume                     1587.1(3)
_computing_cell_refinement       'Bruker SAINT'
_computing_data_collection       'Bruker SMART'
_computing_data_reduction        'Bruker SAINT'
_computing_molecular_graphics    'Bruker SHELXTL'
_computing_publication_material  'Bruker SHELXTL'
_computing_structure_refinement  'SHELXL-97 (Sheldrick, 1997)'
_computing_structure_solution    'SHELXS-97 (Sheldrick, 1990)'
_diffrn_ambient_temperature      100(2)
_diffrn_detector_area_resol_mean 8.366
_diffrn_measured_fraction_theta_full 0.997
_diffrn_measured_fraction_theta_max 0.997
_diffrn_measurement_device_type  'CCD area detector'
_diffrn_measurement_method       '\f and \w scans'
_diffrn_radiation_monochromator  graphite
_diffrn_radiation_source         'sealed tube'
_diffrn_radiation_type           MoK\a
_diffrn_radiation_wavelength     0.71073
_diffrn_reflns_av_R_equivalents  0.0321
_diffrn_reflns_av_sigmaI/netI    0.0188
_diffrn_reflns_limit_h_max       8
_diffrn_reflns_limit_h_min       -7
_diffrn_reflns_limit_k_max       10
_diffrn_reflns_limit_k_min       -10
_diffrn_reflns_limit_l_max       30
_diffrn_reflns_limit_l_min       -30
_diffrn_reflns_number            14065
_diffrn_reflns_theta_full        25.00
_diffrn_reflns_theta_max         25.00
_diffrn_reflns_theta_min         1.60
_exptl_absorpt_coefficient_mu    0.069
_exptl_absorpt_correction_T_max  0.9965
_exptl_absorpt_correction_T_min  0.8709
_exptl_absorpt_correction_type   multi-scan
_exptl_absorpt_process_details
;
SADABS v.2.10 (Bruker,2003) was used for absorption correction.
R(int) for selected reflections was 0.047 before and 0.029 after
correction. The Ratio of minimum to maximum transmission is 0.873993.
The \l/2 correction factor is 0.0015.
;
_exptl_crystal_colour            colourless
_exptl_crystal_density_diffrn    1.224
_exptl_crystal_density_method    'not measured'
_exptl_crystal_description       lath
_exptl_crystal_F_000             616
_exptl_crystal_size_max          0.30
_exptl_crystal_size_mid          0.20
_exptl_crystal_size_min          0.05
_refine_diff_density_max         0.154
_refine_diff_density_min         -0.135
_refine_diff_density_rms         0.029
_refine_ls_extinction_method     none
_refine_ls_goodness_of_fit_ref   1.088
_refine_ls_hydrogen_treatment    constr
_refine_ls_matrix_type           full
_refine_ls_number_parameters     208
_refine_ls_number_reflns         1644
_refine_ls_number_restraints     0
_refine_ls_restrained_S_all      1.088
_refine_ls_R_factor_all          0.0321
_refine_ls_R_factor_gt           0.0288
_refine_ls_shift/su_max          0.000
_refine_ls_shift/su_mean         0.000
_refine_ls_structure_factor_coef Fsqd
_refine_ls_weighting_details
'calc w=1/[\s^2^(Fo^2^)+(0.0303P)^2^+0.3567P] where P=(Fo^2^+2Fc^2^)/3'
_refine_ls_weighting_scheme      calc
_refine_ls_wR_factor_gt          0.0658
_refine_ls_wR_factor_ref         0.0674
_reflns_number_gt                1546
_reflns_number_total             1644
_reflns_threshold_expression     I>2\s(I)
_cod_data_source_file            c004868b.txt
_cod_data_source_block           mjm121(21a)
_cod_database_code               7153396
loop_
_symmetry_equiv_pos_as_xyz
'x, y, z'
'-x+1/2, -y, z+1/2'
'-x, y+1/2, -z+1/2'
'x+1/2, -y+1/2, -z'
loop_
_atom_site_label
_atom_site_type_symbol
_atom_site_fract_x
_atom_site_fract_y
_atom_site_fract_z
_atom_site_U_iso_or_equiv
_atom_site_adp_type
_atom_site_occupancy
_atom_site_symmetry_multiplicity
_atom_site_calc_flag
_atom_site_refinement_flags
C1 C 1.4087(3) 0.0797(2) 0.01428(7) 0.0270(5) Uani 1 1 d .
H1 H 1.5325 0.1035 -0.0005 0.032 Uiso 1 1 calc R
C2 C 1.3126(3) -0.0430(2) -0.00289(7) 0.0292(5) Uani 1 1 d .
H2 H 1.3693 -0.1024 -0.0295 0.035 Uiso 1 1 calc R
C3 C 1.1330(3) -0.0799(2) 0.01856(7) 0.0290(5) Uani 1 1 d .
H3 H 1.0648 -0.1640 0.0065 0.035 Uiso 1 1 calc R
C4 C 1.0537(3) 0.00669(19) 0.05762(7) 0.0241(4) Uani 1 1 d .
H4 H 0.9306 -0.0192 0.0724 0.029 Uiso 1 1 calc R
C4A C 1.1491(3) 0.13057(19) 0.07595(6) 0.0201(4) Uani 1 1 d .
C5 C 1.0641(3) 0.20892(19) 0.12218(6) 0.0193(4) Uani 1 1 d .
C5A C 1.0368(3) 0.37066(19) 0.12350(6) 0.0198(4) Uani 1 1 d .
C6 C 0.8627(3) 0.4253(2) 0.14407(6) 0.0224(4) Uani 1 1 d .
H6 H 0.7604 0.3594 0.1529 0.027 Uiso 1 1 calc R
C7 C 0.8350(3) 0.5732(2) 0.15203(7) 0.0276(4) Uani 1 1 d .
H7 H 0.7158 0.6083 0.1667 0.033 Uiso 1 1 calc R
C8 C 0.9827(3) 0.6696(2) 0.13848(7) 0.0293(5) Uani 1 1 d .
H8 H 0.9656 0.7716 0.1437 0.035 Uiso 1 1 calc R
C9 C 1.1542(3) 0.6171(2) 0.11741(7) 0.0263(4) Uani 1 1 d .
H9 H 1.2541 0.6844 0.1079 0.032 Uiso 1 1 calc R
C9A C 1.1868(3) 0.4676(2) 0.10947(6) 0.0213(4) Uani 1 1 d .
C10 C 1.3791(3) 0.4248(2) 0.08998(7) 0.0249(4) Uani 1 1 d .
H10 H 1.4782 0.4967 0.0942 0.030 Uiso 1 1 calc R
C11 C 1.4396(3) 0.3014(2) 0.06714(6) 0.0255(4) Uani 1 1 d .
H11 H 1.5753 0.2981 0.0588 0.031 Uiso 1 1 calc R
C11A C 1.3289(3) 0.17095(19) 0.05313(6) 0.0217(4) Uani 1 1 d .
C12 C 1.0028(3) 0.13102(18) 0.16212(6) 0.0201(4) Uani 1 1 d .
C13 C 0.9479(3) 0.05082(18) 0.20220(6) 0.0201(4) Uani 1 1 d .
H13 H 1.0392 0.0389 0.2301 0.024 Uiso 1 1 calc R
C14 C 0.7571(3) -0.02234(18) 0.20776(6) 0.0191(4) Uani 1 1 d .
C15 C 0.7233(3) -0.1097(2) 0.25141(7) 0.0240(4) Uani 1 1 d .
H15 H 0.8217 -0.1186 0.2777 0.029 Uiso 1 1 calc R
C16 C 0.5485(3) -0.1841(2) 0.25725(7) 0.0286(5) Uani 1 1 d .
H16 H 0.5275 -0.2436 0.2874 0.034 Uiso 1 1 calc R
C17 C 0.4044(3) -0.1721(2) 0.21951(7) 0.0288(5) Uani 1 1 d .
H17 H 0.2843 -0.2235 0.2234 0.035 Uiso 1 1 calc R
C18 C 0.4361(3) -0.0844(2) 0.17586(7) 0.0253(4) Uani 1 1 d .
H18 H 0.3368 -0.0752 0.1498 0.030 Uiso 1 1 calc R
C19 C 0.6105(3) -0.01056(19) 0.16996(7) 0.0215(4) Uani 1 1 d .
H19 H 0.6309 0.0489 0.1398 0.026 Uiso 1 1 calc R
loop_
_atom_site_aniso_label
_atom_site_aniso_U_11
_atom_site_aniso_U_22
_atom_site_aniso_U_33
_atom_site_aniso_U_23
_atom_site_aniso_U_13
_atom_site_aniso_U_12
C1 0.0279(12) 0.0317(10) 0.0215(8) 0.0048(8) 0.0048(8) 0.0072(9)
C2 0.0419(13) 0.0254(10) 0.0203(9) 0.0014(8) 0.0043(9) 0.0097(10)
C3 0.0435(13) 0.0209(9) 0.0226(9) 0.0009(8) -0.0012(9) 0.0003(10)
C4 0.0292(11) 0.0204(9) 0.0227(8) 0.0036(7) 0.0009(8) -0.0006(9)
C4A 0.0239(10) 0.0185(8) 0.0180(8) 0.0054(7) -0.0005(8) 0.0035(8)
C5 0.0160(10) 0.0227(9) 0.0192(8) 0.0015(7) -0.0003(7) -0.0020(8)
C5A 0.0233(10) 0.0230(9) 0.0130(7) -0.0001(7) -0.0047(7) -0.0009(9)
C6 0.0214(10) 0.0270(9) 0.0187(8) -0.0010(7) -0.0013(8) -0.0009(8)
C7 0.0282(11) 0.0305(10) 0.0242(9) -0.0050(8) -0.0027(8) 0.0074(10)
C8 0.0418(13) 0.0202(9) 0.0258(9) -0.0040(8) -0.0048(9) 0.0033(10)
C9 0.0340(12) 0.0226(9) 0.0222(9) -0.0015(8) -0.0037(9) -0.0079(9)
C9A 0.0232(11) 0.0259(9) 0.0149(8) 0.0003(7) -0.0030(7) -0.0025(8)
C10 0.0219(10) 0.0290(10) 0.0238(9) 0.0021(8) -0.0017(8) -0.0084(9)
C11 0.0177(10) 0.0334(10) 0.0254(9) 0.0026(8) 0.0032(8) -0.0018(9)
C11A 0.0231(11) 0.0245(9) 0.0175(8) 0.0057(7) -0.0008(8) 0.0048(8)
C12 0.0176(10) 0.0199(8) 0.0228(8) -0.0054(7) -0.0016(7) 0.0009(8)
C13 0.0214(10) 0.0218(9) 0.0171(8) -0.0014(7) -0.0009(7) 0.0019(8)
C14 0.0215(10) 0.0176(9) 0.0182(8) -0.0025(7) 0.0042(7) 0.0033(8)
C15 0.0254(11) 0.0272(10) 0.0194(8) 0.0016(8) 0.0005(8) 0.0007(9)
C16 0.0321(12) 0.0273(10) 0.0266(9) 0.0062(8) 0.0079(9) -0.0031(10)
C17 0.0221(11) 0.0261(10) 0.0383(10) -0.0035(8) 0.0063(9) -0.0045(9)
C18 0.0231(11) 0.0238(9) 0.0291(9) -0.0032(8) -0.0022(8) 0.0035(9)
C19 0.0256(11) 0.0188(9) 0.0200(8) 0.0020(7) 0.0025(8) 0.0040(8)
loop_
_atom_type_symbol
_atom_type_description
_atom_type_scat_dispersion_real
_atom_type_scat_dispersion_imag
_atom_type_scat_source
C C 0.0033 0.0000 'International Tables Vol C Tables 4.2.6.8 and 6.1.1.4'
H H 0.0000 0.0000 'International Tables Vol C Tables 4.2.6.8 and 6.1.1.4'
loop_
_geom_angle_atom_site_label_1
_geom_angle_atom_site_label_2
_geom_angle_atom_site_label_3
_geom_angle
C2 C1 C11A 121.73(19)
C2 C1 H1 119.1
C11A C1 H1 119.1
C1 C2 C3 119.89(18)
C1 C2 H2 120.1
C3 C2 H2 120.1
C4 C3 C2 119.34(19)
C4 C3 H3 120.3
C2 C3 H3 120.3
C3 C4 C4A 121.79(19)
C3 C4 H4 119.1
C4A C4 H4 119.1
C4 C4A C11A 119.04(17)
C4 C4A C5 118.31(16)
C11A C4A C5 122.46(16)
C12 C5 C5A 118.90(16)
C12 C5 C4A 118.16(16)
C5A C5 C4A 122.86(15)
C6 C5A C9A 119.43(17)
C6 C5A C5 118.16(17)
C9A C5A C5 122.13(18)
C7 C6 C5A 121.64(19)
C7 C6 H6 119.2
C5A C6 H6 119.2
C6 C7 C8 119.28(19)
C6 C7 H7 120.4
C8 C7 H7 120.4
C9 C8 C7 119.62(17)
C9 C8 H8 120.2
C7 C8 H8 120.2
C8 C9 C9A 122.19(19)
C8 C9 H9 118.9
C9A C9 H9 118.9
C5A C9A C9 117.83(18)
C5A C9A C10 125.04(17)
C9 C9A C10 117.03(17)
C11 C10 C9A 130.83(18)
C11 C10 H10 114.6
C9A C10 H10 114.6
C10 C11 C11A 129.74(19)
C10 C11 H11 115.1
C11A C11 H11 115.1
C1 C11A C4A 118.15(17)
C1 C11A C11 117.31(17)
C4A C11A C11 124.54(16)
C5 C12 C13 177.9(2)
C12 C13 C14 125.67(17)
C12 C13 H13 117.2
C14 C13 H13 117.2
C15 C14 C19 118.52(17)
C15 C14 C13 119.13(16)
C19 C14 C13 122.33(15)
C16 C15 C14 120.91(17)
C16 C15 H15 119.5
C14 C15 H15 119.5
C17 C16 C15 120.14(17)
C17 C16 H16 119.9
C15 C16 H16 119.9
C16 C17 C18 119.46(18)
C16 C17 H17 120.3
C18 C17 H17 120.3
C19 C18 C17 120.42(17)
C19 C18 H18 119.8
C17 C18 H18 119.8
C18 C19 C14 120.54(16)
C18 C19 H19 119.7
C14 C19 H19 119.7
loop_
_geom_bond_atom_site_label_1
_geom_bond_atom_site_label_2
_geom_bond_distance
C1 C2 1.372(3)
C1 C11A 1.403(2)
C1 H1 0.9500
C2 C3 1.383(3)
C2 H2 0.9500
C3 C4 1.380(3)
C3 H3 0.9500
C4 C4A 1.388(3)
C4 H4 0.9500
C4A C11A 1.406(3)
C4A C5 1.494(2)
C5 C12 1.309(2)
C5 C5A 1.493(2)
C5A C6 1.391(3)
C5A C9A 1.401(3)
C6 C7 1.382(3)
C6 H6 0.9500
C7 C8 1.383(3)
C7 H7 0.9500
C8 C9 1.374(3)
C8 H8 0.9500
C9 C9A 1.402(3)
C9 H9 0.9500
C9A C10 1.457(3)
C10 C11 1.336(3)
C10 H10 0.9500
C11 C11A 1.457(3)
C11 H11 0.9500
C12 C13 1.310(2)
C13 C14 1.471(3)
C13 H13 0.9500
C14 C15 1.387(2)
C14 C19 1.391(2)
C15 C16 1.381(3)
C15 H15 0.9500
C16 C17 1.377(3)
C16 H16 0.9500
C17 C18 1.386(3)
C17 H17 0.9500
C18 C19 1.377(3)
C18 H18 0.9500
C19 H19 0.9500
loop_
_geom_torsion_atom_site_label_1
_geom_torsion_atom_site_label_2
_geom_torsion_atom_site_label_3
_geom_torsion_atom_site_label_4
_geom_torsion
C11A C1 C2 C3 -0.6(3)
C1 C2 C3 C4 -0.8(3)
C2 C3 C4 C4A 0.2(3)
C3 C4 C4A C11A 1.7(3)
C3 C4 C4A C5 -173.46(17)
C4 C4A C5 C12 43.9(2)
C11A C4A C5 C12 -131.03(18)
C4 C4A C5 C5A -132.79(19)
C11A C4A C5 C5A 52.2(3)
C12 C5 C5A C6 -39.4(2)
C4A C5 C5A C6 137.26(17)
C12 C5 C5A C9A 134.43(18)
C4A C5 C5A C9A -48.9(3)
C9A C5A C6 C7 -1.3(3)
C5 C5A C6 C7 172.77(17)
C5A C6 C7 C8 1.0(3)
C6 C7 C8 C9 0.0(3)
C7 C8 C9 C9A -0.6(3)
C6 C5A C9A C9 0.6(2)
C5 C5A C9A C9 -173.23(16)
C6 C5A C9A C10 176.86(15)
C5 C5A C9A C10 3.1(3)
C8 C9 C9A C5A 0.4(3)
C8 C9 C9A C10 -176.21(16)
C5A C9A C10 C11 21.8(3)
C9 C9A C10 C11 -161.93(19)
C9A C10 C11 C11A 2.0(3)
C2 C1 C11A C4A 2.4(3)
C2 C1 C11A C11 -177.80(16)
C4 C4A C11A C1 -2.9(2)
C5 C4A C11A C1 171.99(16)
C4 C4A C11A C11 177.32(16)
C5 C4A C11A C11 -7.7(3)
C10 C11 C11A C1 158.57(19)
C10 C11 C11A C4A -21.7(3)
C12 C13 C14 C15 176.89(17)
C12 C13 C14 C19 -1.2(3)
C19 C14 C15 C16 0.3(3)
C13 C14 C15 C16 -177.90(16)
C14 C15 C16 C17 -0.1(3)
C15 C16 C17 C18 -0.3(3)
C16 C17 C18 C19 0.5(3)
C17 C18 C19 C14 -0.2(3)
C15 C14 C19 C18 -0.1(3)
C13 C14 C19 C18 177.98(15)
