#------------------------------------------------------------------------------
#$Date: 2017-06-17 07:30:33 +0300 (Sat, 17 Jun 2017) $
#$Revision: 197912 $
#$URL: file:///home/coder/svn-repositories/cod/cif/7/15/57/7155704.cif $
#------------------------------------------------------------------------------
#
# This file is available in the Crystallography Open Database (COD),
# http://www.crystallography.net/
#
# All data on this site have been placed in the public domain by the
# contributors.
#
data_7155704
loop_
_publ_author_name
'Kaiser, Reinhard Peter'
'Mosinger, Jiri'
'Cisarova, Ivana'
'Kotora, Martin'
_publ_section_title
;
 Synthesis of Selectively 4-Substituted 9,9&#x00B4;-Spirobifluorenes and
 Modulation of Their Photophysical Properties.
;
_journal_name_full               'Org. Biomol. Chem.'
_journal_paper_doi               10.1039/C7OB01319A
_journal_year                    2017
_chemical_compound_source        'synthesized by the authors'
_chemical_formula_moiety         'C48 H38'
_chemical_formula_sum            'C48 H38'
_chemical_formula_weight         614.78
_space_group_crystal_system      triclinic
_space_group_IT_number           2
_space_group_name_Hall           '-P 1'
_space_group_name_H-M_alt        'P -1'
_symmetry_space_group_name_Hall  '-P 1'
_symmetry_space_group_name_H-M   'P -1'
_atom_sites_solution_hydrogens   geom
_atom_sites_solution_primary     direct
_atom_sites_solution_secondary   difmap
_audit_creation_method           SHELXL-2014/7
_audit_update_record
;
2017-04-04 deposited with the CCDC.
2017-06-16 downloaded from the CCDC.
;
_cell_angle_alpha                88.5700(10)
_cell_angle_beta                 86.2480(10)
_cell_angle_gamma                72.8260(10)
_cell_formula_units_Z            2
_cell_length_a                   8.3330(2)
_cell_length_b                   11.6908(3)
_cell_length_c                   18.3693(4)
_cell_measurement_reflns_used    6566
_cell_measurement_temperature    150(2)
_cell_measurement_theta_max      26.9898
_cell_measurement_theta_min      2.7310
_cell_volume                     1706.04(7)
_computing_cell_refinement       'SAINT V8.34A (Bruker AXS Inc., 2013)'
_computing_data_collection       'Bruker Instrument Service v2015.5.1.2'
_computing_data_reduction        'SAINT V8.34A (Bruker AXS Inc., 2013)'
_computing_structure_refinement  'SHELXL-2014/7 (Sheldrick, 2014)'
_computing_structure_solution    'XT, VERSION 2014/5'
_diffrn_ambient_temperature      150(2)
_diffrn_measured_fraction_theta_full 0.996
_diffrn_measured_fraction_theta_max 0.996
_diffrn_measurement_device_type  'Bruker APEX-II CCD'
_diffrn_measurement_method       '\f and \w scans'
_diffrn_radiation_type           MoK\a
_diffrn_radiation_wavelength     0.71073
_diffrn_reflns_av_R_equivalents  0.0244
_diffrn_reflns_av_unetI/netI     0.0344
_diffrn_reflns_Laue_measured_fraction_full 0.996
_diffrn_reflns_Laue_measured_fraction_max 0.996
_diffrn_reflns_limit_h_max       10
_diffrn_reflns_limit_h_min       -8
_diffrn_reflns_limit_k_max       14
_diffrn_reflns_limit_k_min       -14
_diffrn_reflns_limit_l_max       23
_diffrn_reflns_limit_l_min       -23
_diffrn_reflns_number            18051
_diffrn_reflns_point_group_measured_fraction_full 0.996
_diffrn_reflns_point_group_measured_fraction_max 0.996
_diffrn_reflns_theta_full        25.242
_diffrn_reflns_theta_max         26.998
_diffrn_reflns_theta_min         1.111
_diffrn_source                   'fine-focus sealed tube'
_exptl_absorpt_coefficient_mu    0.067
_exptl_absorpt_correction_T_max  0.99
_exptl_absorpt_correction_T_min  0.93
_exptl_absorpt_correction_type   multi-scan
_exptl_absorpt_process_details   'SADABS V2014/5 (Bruker AXS Inc.)'
_exptl_crystal_colour            colourless
_exptl_crystal_density_diffrn    1.197
_exptl_crystal_description       prism
_exptl_crystal_F_000             652
_exptl_crystal_size_max          0.648
_exptl_crystal_size_mid          0.394
_exptl_crystal_size_min          0.140
_refine_diff_density_max         0.249
_refine_diff_density_min         -0.223
_refine_diff_density_rms         0.043
_refine_ls_extinction_method     none
_refine_ls_goodness_of_fit_ref   1.056
_refine_ls_hydrogen_treatment    constr
_refine_ls_matrix_type           full
_refine_ls_number_parameters     436
_refine_ls_number_reflns         7428
_refine_ls_number_restraints     0
_refine_ls_restrained_S_all      1.056
_refine_ls_R_factor_all          0.0657
_refine_ls_R_factor_gt           0.0474
_refine_ls_shift/su_max          0.001
_refine_ls_shift/su_mean         0.000
_refine_ls_structure_factor_coef Fsqd
_refine_ls_weighting_details
'w=1/[\s^2^(Fo^2^)+(0.0798P)^2^+0.1647P] where P=(Fo^2^+2Fc^2^)/3'
_refine_ls_weighting_scheme      calc
_refine_ls_wR_factor_gt          0.1275
_refine_ls_wR_factor_ref         0.1392
_reflns_Friedel_coverage         0.000
_reflns_number_gt                5525
_reflns_number_total             7428
_reflns_threshold_expression     'I > 2\s(I)'
_cod_data_source_file            c7ob01319a2.cif
_cod_data_source_block           rk173_kotora_org
_cod_database_code               7155704
_shelx_shelxl_version_number     2014/7
_shelx_space_group_comment
;
The symmetry employed for this shelxl refinement is uniquely defined
by the following loop, which should always be used as a source of
symmetry information in preference to the above space-group names.
They are only intended as comments.
;
_shelx_estimated_absorpt_t_min   0.958
_shelx_estimated_absorpt_t_max   0.991
_shelx_res_file
;

    rk173_kotora_org.res created by SHELXL-2014/7


TITL rk173_kotora_org_0m in P-1
CELL 0.71073 8.3330 11.6908 18.3693 88.570 86.248 72.826
ZERR 2.00 0.0002 0.0003 0.0004 0.001 0.001 0.001
LATT 1
SFAC  C   H
UNIT   96   76
OMIT -2 54
L.S. 10
ACTA
BOND $H
FMAP 2
PLAN -9
SIZE 0.140 0.394 0.648
HTAB
CONF
TEMP -123.000
WGHT    0.079800    0.164700
FVAR       0.16885
C1    1    0.932118    0.138325    0.738613    11.00000    0.02177    0.02357 =
         0.02304   -0.00087    0.00049   -0.00419
C2    1    0.986997    0.167499    0.669355    11.00000    0.02322    0.02565 =
         0.02339   -0.00290    0.00186   -0.00479
C3    1    0.902421    0.278218    0.637924    11.00000    0.02789    0.02748 =
         0.02449   -0.00080    0.00258   -0.00532
C4    1    0.763383    0.357952    0.676550    11.00000    0.02812    0.02592 =
         0.02676   -0.00030    0.00102   -0.00401
C5    1    0.709047    0.326844    0.746326    11.00000    0.02307    0.02371 =
         0.02669   -0.00204    0.00254   -0.00312
C6    1    0.796153    0.218121    0.777550    11.00000    0.02228    0.02555 =
         0.02326   -0.00289    0.00252   -0.00545
C7    1    0.771476    0.164193    0.849568    11.00000    0.02191    0.02458 =
         0.02398   -0.00202    0.00088   -0.00731
C8    1    0.662670    0.207554    0.910841    11.00000    0.02468    0.02953 =
         0.02642   -0.00408    0.00406   -0.00682
AFIX  43
H8    2    0.584564    0.285405    0.910422    11.00000   -1.20000
AFIX   0
C9    1    0.671424    0.134429    0.972088    11.00000    0.02722    0.03838 =
         0.02549   -0.00514    0.00547   -0.01120
AFIX  43
H9    2    0.598989    0.163111    1.014017    11.00000   -1.20000
AFIX   0
C10   1    0.783698    0.020588    0.973154    11.00000    0.03073    0.03675 =
         0.02496    0.00365    0.00093   -0.01127
AFIX  43
H10   2    0.785967   -0.028291    1.015399    11.00000   -1.20000
AFIX   0
C11   1    0.893548   -0.023225    0.912944    11.00000    0.02584    0.02805 =
         0.02846    0.00211   -0.00111   -0.00587
AFIX  43
H11   2    0.971166   -0.101240    0.913647    11.00000   -1.20000
AFIX   0
C12   1    0.886552    0.049950    0.852093    11.00000    0.02057    0.02635 =
         0.02354   -0.00311    0.00058   -0.00733
C13   1    1.001096    0.023674    0.782167    11.00000    0.02066    0.02402 =
         0.02178   -0.00049    0.00098   -0.00397
C14   1    1.185187   -0.006233    0.799502    11.00000    0.02254    0.02895 =
         0.02041    0.00224    0.00156   -0.00687
C15   1    1.265675    0.065859    0.830963    11.00000    0.03425    0.04239 =
         0.02695   -0.00210    0.00284   -0.01772
AFIX  43
H15   2    1.205895    0.145974    0.843966    11.00000   -1.20000
AFIX   0
C16   1    1.434541    0.019809    0.843281    11.00000    0.03456    0.07075 =
         0.03500    0.00477   -0.00419   -0.02965
AFIX  43
H16   2    1.491021    0.068629    0.865091    11.00000   -1.20000
AFIX   0
C17   1    1.522059   -0.096488    0.824204    11.00000    0.02253    0.07378 =
         0.04546    0.02136   -0.00611   -0.01582
AFIX  43
H17   2    1.637898   -0.126975    0.833400    11.00000   -1.20000
AFIX   0
C18   1    1.443150   -0.168960    0.791921    11.00000    0.02722    0.04177 =
         0.04393    0.01578    0.00436    0.00111
AFIX  43
H18   2    1.504271   -0.248556    0.778354    11.00000   -1.20000
AFIX   0
C19   1    1.272758   -0.123825    0.779512    11.00000    0.02471    0.02844 =
         0.02740    0.00582    0.00368   -0.00346
C20   1    1.157920   -0.176375    0.745274    11.00000    0.03502    0.02444 =
         0.02740   -0.00008    0.00479   -0.00580
C21   1    1.184818   -0.287790    0.714276    11.00000    0.05893    0.02792 =
         0.04594   -0.00873    0.00787   -0.00615
AFIX  43
H21   2    1.292112   -0.345900    0.714460    11.00000   -1.20000
AFIX   0
C22   1    1.053471   -0.312587    0.683298    11.00000    0.08849    0.03921 =
         0.05776   -0.01889    0.00104   -0.02542
AFIX  43
H22   2    1.070511   -0.388816    0.662022    11.00000   -1.20000
AFIX   0
C23   1    0.896371   -0.228514    0.682458    11.00000    0.07206    0.06381 =
         0.04938   -0.01023   -0.01145   -0.04113
AFIX  43
H23   2    0.807441   -0.247613    0.660531    11.00000   -1.20000
AFIX   0
C24   1    0.867962   -0.116338    0.713496    11.00000    0.04031    0.04762 =
         0.03294   -0.00088   -0.00505   -0.01957
AFIX  43
H24   2    0.760472   -0.058502    0.713092    11.00000   -1.20000
AFIX   0
C25   1    0.999378   -0.091122    0.744825    11.00000    0.02962    0.02757 =
         0.02173   -0.00075    0.00090   -0.00880
C26   1    1.133942    0.079358    0.630053    11.00000    0.02825    0.02630 =
         0.02092    0.00170    0.00500   -0.00143
C27   1    1.297982    0.076800    0.641715    11.00000    0.02974    0.03469 =
         0.02569   -0.00042    0.00413   -0.00662
AFIX  43
H27   2    1.317889    0.134945    0.672273    11.00000   -1.20000
AFIX   0
C28   1    1.433569   -0.010495    0.608889    11.00000    0.02576    0.04419 =
         0.03340    0.00563    0.00359   -0.00190
AFIX  43
H28   2    1.545029   -0.010991    0.617348    11.00000   -1.20000
AFIX   0
C29   1    1.408603   -0.096424    0.564203    11.00000    0.03773    0.03289 =
         0.02828    0.00279    0.00881    0.00256
C30   1    1.245148   -0.091759    0.551218    11.00000    0.04454    0.03399 =
         0.03122   -0.00671    0.00559   -0.00400
AFIX  43
H30   2    1.225575   -0.148626    0.519561    11.00000   -1.20000
AFIX   0
C31   1    1.109368   -0.005324    0.583710    11.00000    0.03282    0.03509 =
         0.02754   -0.00339    0.00245   -0.00427
AFIX  43
H31   2    0.998155   -0.003998    0.574161    11.00000   -1.20000
AFIX   0
C32   1    1.556304   -0.193982    0.531341    11.00000    0.04637    0.04131 =
         0.04863   -0.00048    0.01439    0.00837
AFIX 137
H32A  2    1.653936   -0.163685    0.523493    11.00000   -1.50000
H32B  2    1.527162   -0.218588    0.484581    11.00000   -1.50000
H32C  2    1.583504   -0.262876    0.564658    11.00000   -1.50000
AFIX   0
C33   1    0.965488    0.312509    0.563502    11.00000    0.03929    0.02889 =
         0.02652    0.00215    0.00670   -0.00087
AFIX  23
H33A  2    0.868753    0.361975    0.537162    11.00000   -1.20000
H33B  2    1.018549    0.239015    0.534766    11.00000   -1.20000
AFIX   0
C34   1    1.092448    0.381952    0.569394    11.00000    0.04918    0.03500 =
         0.04931   -0.00047    0.01717   -0.01005
AFIX 137
H34A  2    1.039176    0.456241    0.596286    11.00000   -1.50000
H34B  2    1.131299    0.401142    0.520381    11.00000   -1.50000
H34C  2    1.188615    0.333186    0.595309    11.00000   -1.50000
AFIX   0
C35   1    0.666114    0.475413    0.642618    11.00000    0.03882    0.02807 =
         0.03235    0.00340    0.00597    0.00132
AFIX  23
H35A  2    0.743833    0.504938    0.609429    11.00000   -1.20000
H35B  2    0.621496    0.535344    0.681671    11.00000   -1.20000
AFIX   0
C36   1    0.520648    0.464360    0.600072    11.00000    0.05085    0.04805 =
         0.03738    0.00765   -0.00558    0.00280
AFIX 137
H36A  2    0.564608    0.409100    0.559321    11.00000   -1.50000
H36B  2    0.459418    0.543210    0.581148    11.00000   -1.50000
H36C  2    0.444293    0.433655    0.632364    11.00000   -1.50000
AFIX   0
C37   1    0.553804    0.403586    0.786779    11.00000    0.02496    0.02305 =
         0.02570    0.00088    0.00278   -0.00109
C38   1    0.401775    0.378470    0.782037    11.00000    0.02977    0.02519 =
         0.02820   -0.00435    0.00185   -0.00441
AFIX  43
H38   2    0.395664    0.317497    0.750037    11.00000   -1.20000
AFIX   0
C39   1    0.258971    0.441131    0.823339    11.00000    0.02359    0.03059 =
         0.03438   -0.00193    0.00059   -0.00593
AFIX  43
H39   2    0.156505    0.422410    0.819184    11.00000   -1.20000
AFIX   0
C40   1    0.263332    0.530952    0.870753    11.00000    0.02371    0.02271 =
         0.02957   -0.00072    0.00290   -0.00011
C41   1    0.415457    0.556569    0.875088    11.00000    0.02935    0.02412 =
         0.03465   -0.00687    0.00367   -0.00577
AFIX  43
H41   2    0.421420    0.617705    0.906994    11.00000   -1.20000
AFIX   0
C42   1    0.558669    0.494222    0.833536    11.00000    0.02396    0.02657 =
         0.03596   -0.00406    0.00440   -0.00569
AFIX  43
H42   2    0.660804    0.513662    0.837088    11.00000   -1.20000
AFIX   0
C43   1    0.110938    0.595784    0.916629    11.00000    0.02430    0.02169 =
         0.03602   -0.00269    0.00578   -0.00299
C44   1    0.126262    0.626394    0.987963    11.00000    0.02663    0.03267 =
         0.03936   -0.00519    0.00270   -0.00440
AFIX  43
H44   2    0.234663    0.607973    1.006671    11.00000   -1.20000
AFIX   0
C45   1   -0.014747    0.683485    1.032141    11.00000    0.03698    0.04046 =
         0.03859   -0.01007    0.00944   -0.00721
AFIX  43
H45   2   -0.002162    0.705019    1.080502    11.00000   -1.20000
AFIX   0
C46   1   -0.173385    0.709152    1.006105    11.00000    0.03069    0.02779 =
         0.04613   -0.00394    0.01411   -0.00283
AFIX  43
H46   2   -0.270086    0.747029    1.036637    11.00000   -1.20000
AFIX   0
C47   1   -0.190277    0.679394    0.935514    11.00000    0.02324    0.03182 =
         0.05122    0.00061    0.00340   -0.00234
AFIX  43
H47   2   -0.299133    0.697012    0.917344    11.00000   -1.20000
AFIX   0
C48   1   -0.048966    0.623688    0.890615    11.00000    0.02845    0.03224 =
         0.03606   -0.00319    0.00208   -0.00357
AFIX  43
H48   2   -0.062000    0.604610    0.841805    11.00000   -1.20000
AFIX   0
HKLF 4 1 1 0 0 0 1 0 0 0 1

REM  rk173_kotora_org_0m in P-1
REM R1 =  0.0474 for    5525 Fo > 4sig(Fo)  and  0.0657 for all    7428 data
REM    436 parameters refined using      0 restraints

END

WGHT      0.0789      0.1710

REM No hydrogen bonds found for HTAB generation

REM Highest difference peak  0.249,  deepest hole -0.223,  1-sigma level  0.043
Q1    1   0.6455  0.3631  0.7630  11.00000  0.05    0.25
Q2    1   1.0546  0.1277  0.6503  11.00000  0.05    0.24
Q3    1   0.1876  0.5657  0.8908  11.00000  0.05    0.21
Q4    1   1.2372 -0.0575  0.7783  11.00000  0.05    0.20
Q5    1   0.9791  0.1544  0.7179  11.00000  0.05    0.20
Q6    1   0.9420  0.0249  0.8175  11.00000  0.05    0.19
Q7    1   0.8113  0.3545  0.5176  11.00000  0.05    0.18
Q8    1   0.8643  0.2926  0.6436  11.00000  0.05    0.17
Q9    1   0.7665  0.3654  0.7158  11.00000  0.05    0.17
;
_shelx_res_checksum              9920
loop_
_space_group_symop_operation_xyz
'x, y, z'
'-x, -y, -z'
loop_
_atom_site_label
_atom_site_type_symbol
_atom_site_fract_x
_atom_site_fract_y
_atom_site_fract_z
_atom_site_U_iso_or_equiv
_atom_site_adp_type
_atom_site_occupancy
_atom_site_site_symmetry_order
_atom_site_calc_flag
_atom_site_refinement_flags_posn
_atom_site_refinement_flags_adp
C1 C 0.93212(16) 0.13833(12) 0.73861(7) 0.0234(3) Uani 1 1 d . .
C2 C 0.98700(16) 0.16750(12) 0.66935(7) 0.0247(3) Uani 1 1 d . .
C3 C 0.90242(17) 0.27822(12) 0.63792(7) 0.0274(3) Uani 1 1 d . .
C4 C 0.76338(17) 0.35795(12) 0.67655(7) 0.0279(3) Uani 1 1 d . .
C5 C 0.70905(16) 0.32684(12) 0.74633(7) 0.0255(3) Uani 1 1 d . .
C6 C 0.79615(16) 0.21812(12) 0.77755(7) 0.0242(3) Uani 1 1 d . .
C7 C 0.77148(16) 0.16419(12) 0.84957(7) 0.0235(3) Uani 1 1 d . .
C8 C 0.66267(17) 0.20755(13) 0.91084(7) 0.0273(3) Uani 1 1 d . .
H8 H 0.5846 0.2854 0.9104 0.033 Uiso 1 1 calc R U
C9 C 0.67142(17) 0.13443(13) 0.97209(7) 0.0303(3) Uani 1 1 d . .
H9 H 0.5990 0.1631 1.0140 0.036 Uiso 1 1 calc R U
C10 C 0.78370(17) 0.02059(13) 0.97315(7) 0.0307(3) Uani 1 1 d . .
H10 H 0.7860 -0.0283 1.0154 0.037 Uiso 1 1 calc R U
C11 C 0.89355(17) -0.02322(13) 0.91294(7) 0.0280(3) Uani 1 1 d . .
H11 H 0.9712 -0.1012 0.9136 0.034 Uiso 1 1 calc R U
C12 C 0.88655(16) 0.04995(12) 0.85209(7) 0.0234(3) Uani 1 1 d . .
C13 C 1.00110(15) 0.02367(12) 0.78217(7) 0.0228(3) Uani 1 1 d . .
C14 C 1.18519(16) -0.00623(12) 0.79950(7) 0.0243(3) Uani 1 1 d . .
C15 C 1.26567(18) 0.06586(14) 0.83096(7) 0.0333(3) Uani 1 1 d . .
H15 H 1.2059 0.1460 0.8440 0.040 Uiso 1 1 calc R U
C16 C 1.4345(2) 0.01981(17) 0.84328(8) 0.0437(4) Uani 1 1 d . .
H16 H 1.4910 0.0686 0.8651 0.052 Uiso 1 1 calc R U
C17 C 1.52206(19) -0.09649(18) 0.82420(9) 0.0471(4) Uani 1 1 d . .
H17 H 1.6379 -0.1270 0.8334 0.057 Uiso 1 1 calc R U
C18 C 1.44315(18) -0.16896(15) 0.79192(8) 0.0407(4) Uani 1 1 d . .
H18 H 1.5043 -0.2486 0.7784 0.049 Uiso 1 1 calc R U
C19 C 1.27276(16) -0.12383(12) 0.77951(7) 0.0281(3) Uani 1 1 d . .
C20 C 1.15792(18) -0.17638(12) 0.74527(7) 0.0299(3) Uani 1 1 d . .
C21 C 1.1848(2) -0.28779(15) 0.71428(9) 0.0461(4) Uani 1 1 d . .
H21 H 1.2921 -0.3459 0.7145 0.055 Uiso 1 1 calc R U
C22 C 1.0535(3) -0.31259(17) 0.68330(11) 0.0603(5) Uani 1 1 d . .
H22 H 1.0705 -0.3888 0.6620 0.072 Uiso 1 1 calc R U
C23 C 0.8964(3) -0.22851(18) 0.68246(10) 0.0567(5) Uani 1 1 d . .
H23 H 0.8074 -0.2476 0.6605 0.068 Uiso 1 1 calc R U
C24 C 0.8680(2) -0.11634(15) 0.71350(8) 0.0387(4) Uani 1 1 d . .
H24 H 0.7605 -0.0585 0.7131 0.046 Uiso 1 1 calc R U
C25 C 0.99938(17) -0.09112(12) 0.74483(7) 0.0263(3) Uani 1 1 d . .
C26 C 1.13394(17) 0.07936(12) 0.63005(7) 0.0269(3) Uani 1 1 d . .
C27 C 1.29798(17) 0.07680(13) 0.64172(7) 0.0309(3) Uani 1 1 d . .
H27 H 1.3179 0.1349 0.6723 0.037 Uiso 1 1 calc R U
C28 C 1.43357(18) -0.01049(14) 0.60889(8) 0.0366(4) Uani 1 1 d . .
H28 H 1.5450 -0.0110 0.6173 0.044 Uiso 1 1 calc R U
C29 C 1.40860(19) -0.09642(14) 0.56420(8) 0.0363(4) Uani 1 1 d . .
C30 C 1.2451(2) -0.09176(14) 0.55122(8) 0.0385(4) Uani 1 1 d . .
H30 H 1.2256 -0.1486 0.5196 0.046 Uiso 1 1 calc R U
C31 C 1.10937(19) -0.00532(13) 0.58371(7) 0.0332(3) Uani 1 1 d . .
H31 H 0.9982 -0.0040 0.5742 0.040 Uiso 1 1 calc R U
C32 C 1.5563(2) -0.19398(16) 0.53134(10) 0.0508(5) Uani 1 1 d . .
H32A H 1.6539 -0.1637 0.5235 0.076 Uiso 1 1 calc R U
H32B H 1.5272 -0.2186 0.4846 0.076 Uiso 1 1 calc R U
H32C H 1.5835 -0.2629 0.5647 0.076 Uiso 1 1 calc R U
C33 C 0.96549(19) 0.31251(13) 0.56350(7) 0.0340(3) Uani 1 1 d . .
H33A H 0.8688 0.3620 0.5372 0.041 Uiso 1 1 calc R U
H33B H 1.0185 0.2390 0.5348 0.041 Uiso 1 1 calc R U
C34 C 1.0924(2) 0.38195(15) 0.56939(9) 0.0459(4) Uani 1 1 d . .
H34A H 1.0392 0.4562 0.5963 0.069 Uiso 1 1 calc R U
H34B H 1.1313 0.4011 0.5204 0.069 Uiso 1 1 calc R U
H34C H 1.1886 0.3332 0.5953 0.069 Uiso 1 1 calc R U
C35 C 0.66611(19) 0.47541(13) 0.64262(8) 0.0359(4) Uani 1 1 d . .
H35A H 0.7438 0.5049 0.6094 0.043 Uiso 1 1 calc R U
H35B H 0.6215 0.5353 0.6817 0.043 Uiso 1 1 calc R U
C36 C 0.5206(2) 0.46436(16) 0.60007(9) 0.0492(4) Uani 1 1 d . .
H36A H 0.5646 0.4091 0.5593 0.074 Uiso 1 1 calc R U
H36B H 0.4594 0.5432 0.5811 0.074 Uiso 1 1 calc R U
H36C H 0.4443 0.4337 0.6324 0.074 Uiso 1 1 calc R U
C37 C 0.55380(16) 0.40359(12) 0.78678(7) 0.0261(3) Uani 1 1 d . .
C38 C 0.40177(17) 0.37847(12) 0.78204(7) 0.0286(3) Uani 1 1 d . .
H38 H 0.3957 0.3175 0.7500 0.034 Uiso 1 1 calc R U
C39 C 0.25897(17) 0.44113(13) 0.82334(8) 0.0300(3) Uani 1 1 d . .
H39 H 0.1565 0.4224 0.8192 0.036 Uiso 1 1 calc R U
C40 C 0.26333(16) 0.53095(12) 0.87075(7) 0.0270(3) Uani 1 1 d . .
C41 C 0.41546(17) 0.55657(12) 0.87509(8) 0.0300(3) Uani 1 1 d . .
H41 H 0.4214 0.6177 0.9070 0.036 Uiso 1 1 calc R U
C42 C 0.55867(17) 0.49422(12) 0.83354(7) 0.0294(3) Uani 1 1 d . .
H42 H 0.6608 0.5137 0.8371 0.035 Uiso 1 1 calc R U
C43 C 0.11094(17) 0.59578(12) 0.91663(8) 0.0285(3) Uani 1 1 d . .
C44 C 0.12626(18) 0.62639(13) 0.98796(8) 0.0339(3) Uani 1 1 d . .
H44 H 0.2347 0.6080 1.0067 0.041 Uiso 1 1 calc R U
C45 C -0.01475(19) 0.68348(14) 1.03214(9) 0.0399(4) Uani 1 1 d . .
H45 H -0.0022 0.7050 1.0805 0.048 Uiso 1 1 calc R U
C46 C -0.17338(18) 0.70915(13) 1.00610(8) 0.0368(4) Uani 1 1 d . .
H46 H -0.2701 0.7470 1.0366 0.044 Uiso 1 1 calc R U
C47 C -0.19028(18) 0.67939(14) 0.93551(9) 0.0369(4) Uani 1 1 d . .
H47 H -0.2991 0.6970 0.9173 0.044 Uiso 1 1 calc R U
C48 C -0.04897(18) 0.62369(13) 0.89062(8) 0.0335(3) Uani 1 1 d . .
H48 H -0.0620 0.6046 0.8418 0.040 Uiso 1 1 calc R U
loop_
_atom_site_aniso_label
_atom_site_aniso_U_11
_atom_site_aniso_U_22
_atom_site_aniso_U_33
_atom_site_aniso_U_23
_atom_site_aniso_U_13
_atom_site_aniso_U_12
C1 0.0218(6) 0.0236(7) 0.0230(6) -0.0009(5) 0.0005(5) -0.0042(5)
C2 0.0232(7) 0.0256(7) 0.0234(6) -0.0029(5) 0.0019(5) -0.0048(6)
C3 0.0279(7) 0.0275(7) 0.0245(7) -0.0008(5) 0.0026(5) -0.0053(6)
C4 0.0281(7) 0.0259(7) 0.0268(7) -0.0003(5) 0.0010(5) -0.0040(6)
C5 0.0231(7) 0.0237(7) 0.0267(7) -0.0020(5) 0.0025(5) -0.0031(5)
C6 0.0223(6) 0.0255(7) 0.0233(6) -0.0029(5) 0.0025(5) -0.0055(5)
C7 0.0219(6) 0.0246(7) 0.0240(6) -0.0020(5) 0.0009(5) -0.0073(5)
C8 0.0247(7) 0.0295(8) 0.0264(7) -0.0041(5) 0.0041(5) -0.0068(6)
C9 0.0272(7) 0.0384(8) 0.0255(7) -0.0051(6) 0.0055(5) -0.0112(6)
C10 0.0307(7) 0.0368(8) 0.0250(7) 0.0037(6) 0.0009(5) -0.0113(7)
C11 0.0258(7) 0.0280(7) 0.0285(7) 0.0021(6) -0.0011(5) -0.0059(6)
C12 0.0206(6) 0.0264(7) 0.0235(6) -0.0031(5) 0.0006(5) -0.0073(5)
C13 0.0207(6) 0.0240(7) 0.0218(6) -0.0005(5) 0.0010(5) -0.0040(5)
C14 0.0225(7) 0.0289(7) 0.0204(6) 0.0022(5) 0.0016(5) -0.0069(6)
C15 0.0342(8) 0.0424(9) 0.0270(7) -0.0021(6) 0.0028(6) -0.0177(7)
C16 0.0346(9) 0.0708(13) 0.0350(8) 0.0048(8) -0.0042(6) -0.0296(9)
C17 0.0225(8) 0.0738(13) 0.0455(9) 0.0214(9) -0.0061(7) -0.0158(8)
C18 0.0272(8) 0.0418(9) 0.0439(9) 0.0158(7) 0.0044(6) 0.0011(7)
C19 0.0247(7) 0.0284(8) 0.0274(7) 0.0058(6) 0.0037(5) -0.0035(6)
C20 0.0350(8) 0.0244(7) 0.0274(7) -0.0001(6) 0.0048(6) -0.0058(6)
C21 0.0589(11) 0.0279(9) 0.0459(9) -0.0087(7) 0.0079(8) -0.0062(8)
C22 0.0885(15) 0.0392(11) 0.0578(12) -0.0189(9) 0.0010(10) -0.0254(11)
C23 0.0721(13) 0.0638(13) 0.0494(10) -0.0102(9) -0.0114(9) -0.0411(12)
C24 0.0403(9) 0.0476(10) 0.0329(8) -0.0009(7) -0.0051(6) -0.0196(8)
C25 0.0296(7) 0.0276(7) 0.0217(6) -0.0008(5) 0.0009(5) -0.0088(6)
C26 0.0283(7) 0.0263(7) 0.0209(6) 0.0017(5) 0.0050(5) -0.0014(6)
C27 0.0297(7) 0.0347(8) 0.0257(7) -0.0004(6) 0.0041(5) -0.0066(6)
C28 0.0258(7) 0.0442(9) 0.0334(8) 0.0056(7) 0.0036(6) -0.0019(7)
C29 0.0377(8) 0.0329(8) 0.0283(7) 0.0028(6) 0.0088(6) 0.0026(7)
C30 0.0445(9) 0.0340(9) 0.0312(8) -0.0067(6) 0.0056(6) -0.0040(7)
C31 0.0328(8) 0.0351(8) 0.0275(7) -0.0034(6) 0.0024(6) -0.0043(6)
C32 0.0464(10) 0.0413(10) 0.0486(10) -0.0005(8) 0.0144(8) 0.0084(8)
C33 0.0393(8) 0.0289(8) 0.0265(7) 0.0021(6) 0.0067(6) -0.0009(6)
C34 0.0492(10) 0.0350(9) 0.0493(10) -0.0005(7) 0.0172(8) -0.0100(8)
C35 0.0388(8) 0.0281(8) 0.0324(7) 0.0034(6) 0.0060(6) 0.0013(7)
C36 0.0509(10) 0.0480(11) 0.0374(9) 0.0076(8) -0.0056(7) 0.0028(8)
C37 0.0250(7) 0.0230(7) 0.0257(6) 0.0009(5) 0.0028(5) -0.0011(6)
C38 0.0298(7) 0.0252(7) 0.0282(7) -0.0043(5) 0.0018(5) -0.0044(6)
C39 0.0236(7) 0.0306(8) 0.0344(7) -0.0019(6) 0.0006(5) -0.0059(6)
C40 0.0237(7) 0.0227(7) 0.0296(7) -0.0007(5) 0.0029(5) -0.0001(6)
C41 0.0294(7) 0.0241(7) 0.0347(7) -0.0069(6) 0.0037(6) -0.0058(6)
C42 0.0240(7) 0.0266(7) 0.0360(7) -0.0041(6) 0.0044(5) -0.0057(6)
C43 0.0243(7) 0.0217(7) 0.0360(7) -0.0027(6) 0.0058(5) -0.0030(6)
C44 0.0266(7) 0.0327(8) 0.0394(8) -0.0052(6) 0.0027(6) -0.0044(6)
C45 0.0370(9) 0.0405(9) 0.0386(8) -0.0101(7) 0.0094(7) -0.0072(7)
C46 0.0307(8) 0.0278(8) 0.0461(9) -0.0039(7) 0.0141(6) -0.0028(6)
C47 0.0232(7) 0.0318(8) 0.0512(9) 0.0006(7) 0.0034(6) -0.0023(6)
C48 0.0285(7) 0.0322(8) 0.0361(8) -0.0032(6) 0.0021(6) -0.0036(6)
loop_
_atom_type_symbol
_atom_type_description
_atom_type_scat_dispersion_real
_atom_type_scat_dispersion_imag
_atom_type_scat_source
C C 0.0033 0.0016 'International Tables Vol C Tables 4.2.6.8 and 6.1.1.4'
H H 0.0000 0.0000 'International Tables Vol C Tables 4.2.6.8 and 6.1.1.4'
loop_
_geom_angle_atom_site_label_1
_geom_angle_atom_site_label_2
_geom_angle_atom_site_label_3
_geom_angle
C2 C1 C6 120.99(12)
C2 C1 C13 128.16(11)
C6 C1 C13 110.85(11)
C1 C2 C3 119.08(11)
C1 C2 C26 118.99(12)
C3 C2 C26 121.92(11)
C2 C3 C4 120.03(12)
C2 C3 C33 119.34(12)
C4 C3 C33 120.59(13)
C5 C4 C3 120.16(13)
C5 C4 C35 118.83(12)
C3 C4 C35 120.96(12)
C6 C5 C4 119.26(11)
C6 C5 C37 118.52(11)
C4 C5 C37 122.12(12)
C5 C6 C1 120.42(12)
C5 C6 C7 131.13(11)
C1 C6 C7 108.46(12)
C12 C7 C8 119.39(12)
C12 C7 C6 108.22(10)
C8 C7 C6 132.37(13)
C9 C8 C7 118.69(13)
C9 C8 H8 120.7
C7 C8 H8 120.7
C10 C9 C8 121.19(12)
C10 C9 H9 119.4
C8 C9 H9 119.4
C9 C10 C11 120.74(13)
C9 C10 H10 119.6
C11 C10 H10 119.6
C12 C11 C10 118.24(13)
C12 C11 H11 120.9
C10 C11 H11 120.9
C11 C12 C7 121.73(11)
C11 C12 C13 127.18(12)
C7 C12 C13 111.03(11)
C14 C13 C1 115.92(11)
C14 C13 C25 101.20(10)
C1 C13 C25 115.19(11)
C14 C13 C12 110.73(10)
C1 C13 C12 101.35(10)
C25 C13 C12 112.91(10)
C15 C14 C19 120.82(13)
C15 C14 C13 128.39(12)
C19 C14 C13 110.79(11)
C14 C15 C16 119.01(15)
C14 C15 H15 120.5
C16 C15 H15 120.5
C17 C16 C15 120.67(15)
C17 C16 H16 119.7
C15 C16 H16 119.7
C18 C17 C16 120.78(14)
C18 C17 H17 119.6
C16 C17 H17 119.6
C17 C18 C19 119.13(15)
C17 C18 H18 120.4
C19 C18 H18 120.4
C18 C19 C14 119.58(14)
C18 C19 C20 131.73(14)
C14 C19 C20 108.66(12)
C21 C20 C25 120.35(14)
C21 C20 C19 130.97(14)
C25 C20 C19 108.65(12)
C22 C21 C20 118.71(17)
C22 C21 H21 120.6
C20 C21 H21 120.6
C21 C22 C23 121.26(16)
C21 C22 H22 119.4
C23 C22 H22 119.4
C22 C23 C24 120.50(16)
C22 C23 H23 119.8
C24 C23 H23 119.8
C25 C24 C23 118.46(16)
C25 C24 H24 120.8
C23 C24 H24 120.8
C24 C25 C20 120.73(13)
C24 C25 C13 128.70(13)
C20 C25 C13 110.57(11)
C27 C26 C31 118.27(12)
C27 C26 C2 120.86(12)
C31 C26 C2 120.80(12)
C26 C27 C28 120.44(13)
C26 C27 H27 119.8
C28 C27 H27 119.8
C29 C28 C27 121.12(14)
C29 C28 H28 119.4
C27 C28 H28 119.4
C28 C29 C30 118.28(13)
C28 C29 C32 120.78(15)
C30 C29 C32 120.93(15)
C29 C30 C31 121.01(14)
C29 C30 H30 119.5
C31 C30 H30 119.5
C30 C31 C26 120.84(14)
C30 C31 H31 119.6
C26 C31 H31 119.6
C29 C32 H32A 109.5
C29 C32 H32B 109.5
H32A C32 H32B 109.5
C29 C32 H32C 109.5
H32A C32 H32C 109.5
H32B C32 H32C 109.5
C3 C33 C34 112.02(12)
C3 C33 H33A 109.2
C34 C33 H33A 109.2
C3 C33 H33B 109.2
C34 C33 H33B 109.2
H33A C33 H33B 107.9
C33 C34 H34A 109.5
C33 C34 H34B 109.5
H34A C34 H34B 109.5
C33 C34 H34C 109.5
H34A C34 H34C 109.5
H34B C34 H34C 109.5
C4 C35 C36 112.89(13)
C4 C35 H35A 109.0
C36 C35 H35A 109.0
C4 C35 H35B 109.0
C36 C35 H35B 109.0
H35A C35 H35B 107.8
C35 C36 H36A 109.5
C35 C36 H36B 109.5
H36A C36 H36B 109.5
C35 C36 H36C 109.5
H36A C36 H36C 109.5
H36B C36 H36C 109.5
C38 C37 C42 118.28(12)
C38 C37 C5 119.43(12)
C42 C37 C5 122.11(12)
C39 C38 C37 120.96(12)
C39 C38 H38 119.5
C37 C38 H38 119.5
C38 C39 C40 121.07(13)
C38 C39 H39 119.5
C40 C39 H39 119.5
C39 C40 C41 117.91(12)
C39 C40 C43 120.96(12)
C41 C40 C43 121.12(12)
C42 C41 C40 121.15(12)
C42 C41 H41 119.4
C40 C41 H41 119.4
C41 C42 C37 120.62(12)
C41 C42 H42 119.7
C37 C42 H42 119.7
C48 C43 C44 118.44(12)
C48 C43 C40 121.46(13)
C44 C43 C40 120.07(13)
C45 C44 C43 120.82(14)
C45 C44 H44 119.6
C43 C44 H44 119.6
C46 C45 C44 120.27(14)
C46 C45 H45 119.9
C44 C45 H45 119.9
C47 C46 C45 119.48(13)
C47 C46 H46 120.3
C45 C46 H46 120.3
C46 C47 C48 120.47(14)
C46 C47 H47 119.8
C48 C47 H47 119.8
C43 C48 C47 120.51(14)
C43 C48 H48 119.7
C47 C48 H48 119.7
loop_
_geom_bond_atom_site_label_1
_geom_bond_atom_site_label_2
_geom_bond_distance
C1 C2 1.3922(18)
C1 C6 1.4031(16)
C1 C13 1.5227(18)
C2 C3 1.4081(19)
C2 C26 1.5029(17)
C3 C4 1.4150(17)
C3 C33 1.5195(18)
C4 C5 1.4065(18)
C4 C35 1.516(2)
C5 C6 1.3945(19)
C5 C37 1.5009(16)
C6 C7 1.4796(18)
C7 C12 1.3971(19)
C7 C8 1.4033(16)
C8 C9 1.388(2)
C8 H8 0.9500
C9 C10 1.383(2)
C9 H9 0.9500
C10 C11 1.3937(17)
C10 H10 0.9500
C11 C12 1.3842(19)
C11 H11 0.9500
C12 C13 1.5302(16)
C13 C14 1.5227(18)
C13 C25 1.5266(18)
C14 C15 1.3795(19)
C14 C19 1.3982(19)
C15 C16 1.382(2)
C15 H15 0.9500
C16 C17 1.381(2)
C16 H16 0.9500
C17 C18 1.381(2)
C17 H17 0.9500
C18 C19 1.393(2)
C18 H18 0.9500
C19 C20 1.461(2)
C20 C21 1.385(2)
C20 C25 1.401(2)
C21 C22 1.372(3)
C21 H21 0.9500
C22 C23 1.386(3)
C22 H22 0.9500
C23 C24 1.392(2)
C23 H23 0.9500
C24 C25 1.378(2)
C24 H24 0.9500
C26 C27 1.389(2)
C26 C31 1.3897(19)
C27 C28 1.3937(19)
C27 H27 0.9500
C28 C29 1.383(2)
C28 H28 0.9500
C29 C30 1.383(2)
C29 C32 1.513(2)
C30 C31 1.3871(19)
C30 H30 0.9500
C31 H31 0.9500
C32 H32A 0.9800
C32 H32B 0.9800
C32 H32C 0.9800
C33 C34 1.522(2)
C33 H33A 0.9900
C33 H33B 0.9900
C34 H34A 0.9800
C34 H34B 0.9800
C34 H34C 0.9800
C35 C36 1.523(2)
C35 H35A 0.9900
C35 H35B 0.9900
C36 H36A 0.9800
C36 H36B 0.9800
C36 H36C 0.9800
C37 C38 1.3907(19)
C37 C42 1.3919(18)
C38 C39 1.3868(17)
C38 H38 0.9500
C39 C40 1.3910(19)
C39 H39 0.9500
C40 C41 1.3934(19)
C40 C43 1.4902(16)
C41 C42 1.3903(17)
C41 H41 0.9500
C42 H42 0.9500
C43 C48 1.389(2)
C43 C44 1.391(2)
C44 C45 1.3870(18)
C44 H44 0.9500
C45 C46 1.381(2)
C45 H45 0.9500
C46 C47 1.378(2)
C46 H46 0.9500
C47 C48 1.3920(19)
C47 H47 0.9500
C48 H48 0.9500
loop_
_geom_torsion_atom_site_label_1
_geom_torsion_atom_site_label_2
_geom_torsion_atom_site_label_3
_geom_torsion_atom_site_label_4
_geom_torsion
C6 C1 C2 C3 -0.94(19)
C13 C1 C2 C3 178.50(12)
C6 C1 C2 C26 179.58(12)
C13 C1 C2 C26 -1.0(2)
C1 C2 C3 C4 -0.2(2)
C26 C2 C3 C4 179.27(12)
C1 C2 C3 C33 177.85(12)
C26 C2 C3 C33 -2.7(2)
C2 C3 C4 C5 -0.1(2)
C33 C3 C4 C5 -178.13(13)
C2 C3 C4 C35 -177.55(13)
C33 C3 C4 C35 4.4(2)
C3 C4 C5 C6 1.5(2)
C35 C4 C5 C6 179.03(12)
C3 C4 C5 C37 -174.78(12)
C35 C4 C5 C37 2.7(2)
C4 C5 C6 C1 -2.67(19)
C37 C5 C6 C1 173.79(12)
C4 C5 C6 C7 178.05(13)
C37 C5 C6 C7 -5.5(2)
C2 C1 C6 C5 2.40(19)
C13 C1 C6 C5 -177.12(11)
C2 C1 C6 C7 -178.17(12)
C13 C1 C6 C7 2.31(14)
C5 C6 C7 C12 176.26(13)
C1 C6 C7 C12 -3.09(14)
C5 C6 C7 C8 -5.4(2)
C1 C6 C7 C8 175.25(13)
C12 C7 C8 C9 -0.83(19)
C6 C7 C8 C9 -179.02(13)
C7 C8 C9 C10 -0.5(2)
C8 C9 C10 C11 1.1(2)
C9 C10 C11 C12 -0.3(2)
C10 C11 C12 C7 -1.04(19)
C10 C11 C12 C13 176.10(12)
C8 C7 C12 C11 1.63(19)
C6 C7 C12 C11 -179.78(12)
C8 C7 C12 C13 -175.93(11)
C6 C7 C12 C13 2.66(14)
C2 C1 C13 C14 59.87(17)
C6 C1 C13 C14 -120.64(12)
C2 C1 C13 C25 -57.97(18)
C6 C1 C13 C25 121.51(12)
C2 C1 C13 C12 179.80(13)
C6 C1 C13 C12 -0.71(13)
C11 C12 C13 C14 -55.10(17)
C7 C12 C13 C14 122.29(12)
C11 C12 C13 C1 -178.64(13)
C7 C12 C13 C1 -1.25(13)
C11 C12 C13 C25 57.57(17)
C7 C12 C13 C25 -125.04(12)
C1 C13 C14 C15 51.60(17)
C25 C13 C14 C15 176.94(12)
C12 C13 C14 C15 -63.11(17)
C1 C13 C14 C19 -128.94(12)
C25 C13 C14 C19 -3.59(13)
C12 C13 C14 C19 116.36(12)
C19 C14 C15 C16 -0.7(2)
C13 C14 C15 C16 178.74(13)
C14 C15 C16 C17 0.2(2)
C15 C16 C17 C18 0.5(2)
C16 C17 C18 C19 -0.8(2)
C17 C18 C19 C14 0.3(2)
C17 C18 C19 C20 178.05(14)
C15 C14 C19 C18 0.4(2)
C13 C14 C19 C18 -179.13(12)
C15 C14 C19 C20 -177.80(11)
C13 C14 C19 C20 2.68(14)
C18 C19 C20 C21 -0.4(3)
C14 C19 C20 C21 177.51(15)
C18 C19 C20 C25 -178.36(14)
C14 C19 C20 C25 -0.47(15)
C25 C20 C21 C22 0.0(2)
C19 C20 C21 C22 -177.77(15)
C20 C21 C22 C23 0.2(3)
C21 C22 C23 C24 -0.2(3)
C22 C23 C24 C25 0.1(3)
C23 C24 C25 C20 0.1(2)
C23 C24 C25 C13 -179.90(14)
C21 C20 C25 C24 -0.2(2)
C19 C20 C25 C24 178.06(12)
C21 C20 C25 C13 179.85(13)
C19 C20 C25 C13 -1.92(15)
C14 C13 C25 C24 -176.70(13)
C1 C13 C25 C24 -50.86(18)
C12 C13 C25 C24 64.92(18)
C14 C13 C25 C20 3.29(13)
C1 C13 C25 C20 129.12(12)
C12 C13 C25 C20 -115.10(13)
C1 C2 C26 C27 -85.68(16)
C3 C2 C26 C27 94.86(17)
C1 C2 C26 C31 91.30(16)
C3 C2 C26 C31 -88.16(17)
C31 C26 C27 C28 -1.5(2)
C2 C26 C27 C28 175.59(13)
C26 C27 C28 C29 -0.1(2)
C27 C28 C29 C30 1.7(2)
C27 C28 C29 C32 -177.40(14)
C28 C29 C30 C31 -1.8(2)
C32 C29 C30 C31 177.32(15)
C29 C30 C31 C26 0.2(2)
C27 C26 C31 C30 1.4(2)
C2 C26 C31 C30 -175.66(13)
C2 C3 C33 C34 -91.03(16)
C4 C3 C33 C34 86.99(17)
C5 C4 C35 C36 -87.76(16)
C3 C4 C35 C36 89.71(16)
C6 C5 C37 C38 -81.55(17)
C4 C5 C37 C38 94.80(17)
C6 C5 C37 C42 93.57(16)
C4 C5 C37 C42 -90.08(17)
C42 C37 C38 C39 -0.7(2)
C5 C37 C38 C39 174.64(13)
C37 C38 C39 C40 0.0(2)
C38 C39 C40 C41 0.4(2)
C38 C39 C40 C43 -178.25(13)
C39 C40 C41 C42 -0.2(2)
C43 C40 C41 C42 178.51(13)
C40 C41 C42 C37 -0.5(2)
C38 C37 C42 C41 0.9(2)
C5 C37 C42 C41 -174.26(13)
C39 C40 C43 C48 -36.7(2)
C41 C40 C43 C48 144.65(15)
C39 C40 C43 C44 141.22(15)
C41 C40 C43 C44 -37.4(2)
C48 C43 C44 C45 0.0(2)
C40 C43 C44 C45 -178.02(14)
C43 C44 C45 C46 1.0(2)
C44 C45 C46 C47 -1.1(2)
C45 C46 C47 C48 0.1(2)
C44 C43 C48 C47 -0.9(2)
C40 C43 C48 C47 177.03(13)
C46 C47 C48 C43 0.9(2)
