#------------------------------------------------------------------------------
#$Date: 2017-02-04 16:16:28 +0200 (Sat, 04 Feb 2017) $
#$Revision: 191760 $
#$URL: file:///home/coder/svn-repositories/cod/cif/7/22/73/7227338.cif $
#------------------------------------------------------------------------------
#
# This file is available in the Crystallography Open Database (COD),
# http://www.crystallography.net/
#
# All data on this site have been placed in the public domain by the
# contributors.
#
data_7227338
loop_
_publ_author_name
'Dra\<c\'insk\'y, Martin'
'Storch, Jan'
'C\'irkva, Vladim\'ir'
'C\'isa\<rov\'a, Ivana'
'S\'ykora, Jan'
_publ_section_title
;
 Internal dynamics in helical molecules studied by X-ray diffraction, NMR
 spectroscopy and DFT calculations.
;
_journal_issue                   4
_journal_name_full               'Physical chemistry chemical physics : PCCP'
_journal_page_first              2900
_journal_page_last               2907
_journal_paper_doi               10.1039/c6cp07552e
_journal_volume                  19
_journal_year                    2017
_chemical_absolute_configuration unk
_chemical_formula_moiety         'C26 H16'
_chemical_formula_sum            'C26 H16'
_chemical_formula_weight         328.41
_chemical_name_systematic        '[6]helicene'
_space_group_IT_number           19
_symmetry_cell_setting           orthorhombic
_symmetry_space_group_name_Hall  'P 2ac 2ab'
_symmetry_space_group_name_H-M   'P 21 21 21'
_atom_sites_solution_hydrogens   difmap
_atom_sites_solution_primary     direct
_audit_update_record
;
2016-11-03 deposited with the CCDC.
2017-01-03 downloaded from the CCDC.
;
_cell_angle_alpha                90
_cell_angle_beta                 90
_cell_angle_gamma                90
_cell_formula_units_Z            4
_cell_length_a                   7.3280(3)
_cell_length_b                   13.0400(6)
_cell_length_c                   17.4490(5)
_cell_measurement_reflns_used    2186
_cell_measurement_temperature    150
_cell_measurement_theta_max      27
_cell_measurement_theta_min      1
_cell_volume                     1667.38(11)
_computing_cell_refinement       'DENZO/SCALEPACK (Otwinowski & Minor, 1997)'
_computing_data_collection       'COLLECT (Nonius, 2001).'
_computing_data_reduction        'DENZO/SCALEPACK (Otwinowski & Minor, 1997)'
_computing_molecular_graphics    'CAMERON (Watkin et al., 1996)'
_computing_publication_material  'CRYSTALS (Betteridge et al., 2003)'
_computing_structure_refinement  'CRYSTALS (Betteridge et al., 2003)'
_computing_structure_solution    'SHELXS 86 (Sheldrick, 1986)'
_diffrn_ambient_temperature      150
_diffrn_measured_fraction_theta_full 1.000
_diffrn_measured_fraction_theta_max 1.000
_diffrn_measurement_device       Area
_diffrn_measurement_device_type  'Nonius KappaCCD'
_diffrn_measurement_method       '\f & \w scans'
_diffrn_radiation_monochromator  graphite
_diffrn_radiation_type           'Mo K\a'
_diffrn_radiation_wavelength     0.71073
_diffrn_reflns_av_R_equivalents  0.010
_diffrn_reflns_limit_h_max       9
_diffrn_reflns_limit_h_min       -9
_diffrn_reflns_limit_k_max       16
_diffrn_reflns_limit_k_min       -16
_diffrn_reflns_limit_l_max       22
_diffrn_reflns_limit_l_min       -22
_diffrn_reflns_number            3826
_diffrn_reflns_theta_full        27.481
_diffrn_reflns_theta_max         27.481
_diffrn_reflns_theta_min         1.950
_diffrn_standards_number         0
_exptl_absorpt_coefficient_mu    0.074
_exptl_absorpt_correction_T_max  0.99
_exptl_absorpt_correction_T_min  0.99
_exptl_absorpt_correction_type   gaussian
_exptl_absorpt_process_details
; 
 Gaussian Integration (Busing and Levy, 1957) 
;
_exptl_crystal_colour            yellow
_exptl_crystal_density_diffrn    1.308
_exptl_crystal_density_method    'not measured'
_exptl_crystal_description       block
_exptl_crystal_F_000             688
_exptl_crystal_recrystallization_method
'Re-crystallisation from solvent: CHCl3'
_exptl_crystal_size_max          0.200
_exptl_crystal_size_mid          0.150
_exptl_crystal_size_min          0.100
_refine_diff_density_max         0.15
_refine_diff_density_min         -0.13
_refine_ls_extinction_method     None
_refine_ls_goodness_of_fit_ref   1.0363
_refine_ls_hydrogen_treatment    mixed
_refine_ls_matrix_type           full
_refine_ls_number_parameters     299
_refine_ls_number_reflns         1682
_refine_ls_number_restraints     0
_refine_ls_R_factor_all          0.0494
_refine_ls_R_factor_gt           0.0345
_refine_ls_shift/su_max          0.0001499
_refine_ls_shift/su_mean         0.0000157
_refine_ls_structure_factor_coef Fsqd
_refine_ls_weighting_details
;
 Method, part 1, Chebychev polynomial, (Watkin, 1994, Prince, 1982) 
 [weight] = 1.0/[A~0~*T~0~(x)+A~1~*T~1~(x) ... +A~n-1~]*T~n-1~(x)] 
 where A~i~ are the Chebychev coefficients listed below and x= Fcalc/Fmax 
 Method = Robust Weighting (Prince, 1982) 
 W = [weight] * [1-(deltaF/6*sigmaF)^2^]^2^ 
 A~i~ are: 
 8.84 11.8 4.45 
;
_refine_ls_weighting_scheme      calc
_refine_ls_wR_factor_all         0.0936
_refine_ls_wR_factor_gt          0.0795
_refine_ls_wR_factor_ref         0.0795
_reflns_limit_h_max              9
_reflns_limit_h_min              0
_reflns_limit_k_max              16
_reflns_limit_k_min              0
_reflns_limit_l_max              22
_reflns_limit_l_min              0
_reflns_number_gt                1682
_reflns_number_total             2204
_reflns_threshold_expression     I>2.0\s(I)
_oxford_diffrn_Wilson_B_factor   0.00
_oxford_diffrn_Wilson_scale      0.00
_oxford_refine_ls_r_factor_ref   0.0345
_oxford_refine_ls_scale          0.5907(13)
_oxford_reflns_number_all        2192
_oxford_reflns_threshold_expression_ref I>2.0\s(I)
_cod_data_source_file            c6cp07552e2.cif
_cod_data_source_block           1
_cod_depositor_comments
'Adding full bibliography for 7227334--7227338.cif.'
_cod_original_sg_symbol_H-M      'P 21 21 21 '
_cod_database_code               7227338
_iucr_refine_instructions_details_constraints
;
#
# Punched on 07/09/16 at 12:37:33
#
#LIST     12                                                                    
FULL C(1,X'S,U'S) UNTIL C(26), H(11,X'S,U[ISO]) UNTIL LAST 
END                                                                             
;
_iucr_refine_instructions_details_restraints
;
#
# Punched on 07/09/16 at 12:37:33
#
#LIST     16                                                                    
NO 
END                                                                             
;
loop_
_symmetry_equiv_pos_as_xyz
x,y,z
x+1/2,-y+1/2,-z
-x,y+1/2,-z+1/2
-x+1/2,-y,z+1/2
loop_
_atom_site_label
_atom_site_type_symbol
_atom_site_fract_x
_atom_site_fract_y
_atom_site_fract_z
_atom_site_U_iso_or_equiv
_atom_site_occupancy
_atom_site_adp_type
C1 C 0.5578(3) 0.47487(18) -0.04239(13) 0.0355 1.0000 Uani
C2 C 0.5401(4) 0.50999(19) -0.11638(13) 0.0430 1.0000 Uani
C3 C 0.6919(5) 0.5108(2) -0.16583(15) 0.0515 1.0000 Uani
C4 C 0.8549(4) 0.4741(2) -0.14083(16) 0.0518 1.0000 Uani
C5 C 0.8762(3) 0.43592(19) -0.06593(15) 0.0440 1.0000 Uani
C6 C 1.0450(4) 0.3887(3) -0.0426(2) 0.0595 1.0000 Uani
C7 C 1.0544(4) 0.3358(2) 0.0237(2) 0.0575 1.0000 Uani
C8 C 0.9054(4) 0.33282(19) 0.07571(16) 0.0469 1.0000 Uani
C9 C 0.9070(5) 0.2637(2) 0.1393(2) 0.0597 1.0000 Uani
C10 C 0.7575(6) 0.2519(2) 0.18304(18) 0.0605 1.0000 Uani
C11 C 0.6053(4) 0.3180(2) 0.17528(14) 0.0496 1.0000 Uani
C12 C 0.4434(5) 0.3030(3) 0.22007(14) 0.0605 1.0000 Uani
C13 C 0.3002(5) 0.3665(3) 0.21352(15) 0.0592 1.0000 Uani
C14 C 0.3155(4) 0.4589(2) 0.17058(14) 0.0487 1.0000 Uani
C15 C 0.1693(4) 0.5319(3) 0.16908(16) 0.0578 1.0000 Uani
C16 C 0.1894(4) 0.6247(3) 0.13636(18) 0.0549 1.0000 Uani
C17 C 0.3646(3) 0.6573(2) 0.11046(13) 0.0428 1.0000 Uani
C18 C 0.3950(4) 0.7606(2) 0.09073(16) 0.0497 1.0000 Uani
C19 C 0.5666(4) 0.7958(2) 0.07469(15) 0.0469 1.0000 Uani
C20 C 0.7148(4) 0.72816(19) 0.07822(14) 0.0408 1.0000 Uani
C21 C 0.6884(3) 0.62606(17) 0.09465(12) 0.0344 1.0000 Uani
C22 C 0.5122(3) 0.58674(18) 0.10984(12) 0.0350 1.0000 Uani
C23 C 0.4798(3) 0.48055(19) 0.13146(12) 0.0372 1.0000 Uani
C24 C 0.6128(3) 0.39968(17) 0.12187(12) 0.0375 1.0000 Uani
C25 C 0.7501(3) 0.39452(16) 0.06232(13) 0.0360 1.0000 Uani
C26 C 0.7270(3) 0.43845(17) -0.01410(13) 0.0344 1.0000 Uani
H11 H 0.453(4) 0.469(2) -0.0105(14) 0.039(7) 1.0000 Uiso
H21 H 0.419(4) 0.535(2) -0.1355(15) 0.040(7) 1.0000 Uiso
H31 H 0.673(5) 0.542(3) -0.2174(19) 0.067(10) 1.0000 Uiso
H41 H 0.969(5) 0.473(3) -0.1742(19) 0.076(11) 1.0000 Uiso
H61 H 1.152(5) 0.390(3) -0.080(2) 0.084(12) 1.0000 Uiso
H71 H 1.172(5) 0.297(3) 0.0397(19) 0.068(10) 1.0000 Uiso
H91 H 1.018(5) 0.225(2) 0.1450(17) 0.055(9) 1.0000 Uiso
H101 H 0.748(5) 0.197(3) 0.2240(19) 0.072(10) 1.0000 Uiso
H121 H 0.442(5) 0.239(3) 0.2551(19) 0.068(10) 1.0000 Uiso
H131 H 0.173(5) 0.352(3) 0.2420(19) 0.074(11) 1.0000 Uiso
H151 H 0.053(5) 0.508(3) 0.1919(18) 0.069(10) 1.0000 Uiso
H161 H 0.082(5) 0.681(2) 0.1335(17) 0.059(8) 1.0000 Uiso
H181 H 0.291(5) 0.810(3) 0.0918(19) 0.077(11) 1.0000 Uiso
H191 H 0.589(4) 0.870(2) 0.0623(18) 0.062(9) 1.0000 Uiso
H201 H 0.842(4) 0.755(2) 0.0712(16) 0.045(7) 1.0000 Uiso
H211 H 0.797(3) 0.5818(19) 0.0975(14) 0.034(6) 1.0000 Uiso
loop_
_atom_site_aniso_label
_atom_site_aniso_U_11
_atom_site_aniso_U_22
_atom_site_aniso_U_33
_atom_site_aniso_U_23
_atom_site_aniso_U_13
_atom_site_aniso_U_12
C1 0.0346(11) 0.0378(11) 0.0341(10) -0.0046(9) -0.0002(9) -0.0030(10)
C2 0.0503(15) 0.0410(12) 0.0377(11) -0.0010(10) -0.0074(11) -0.0108(12)
C3 0.0699(19) 0.0497(15) 0.0350(12) -0.0028(11) 0.0039(13) -0.0217(15)
C4 0.0521(16) 0.0554(16) 0.0480(14) -0.0160(12) 0.0151(13) -0.0185(14)
C5 0.0350(11) 0.0442(13) 0.0528(14) -0.0190(11) 0.0055(11) -0.0078(10)
C6 0.0367(13) 0.0614(18) 0.080(2) -0.0353(17) 0.0071(14) 0.0009(14)
C7 0.0395(14) 0.0499(15) 0.083(2) -0.0296(15) -0.0128(15) 0.0126(13)
C8 0.0452(14) 0.0336(11) 0.0619(15) -0.0149(11) -0.0201(13) 0.0037(11)
C9 0.071(2) 0.0338(13) 0.0740(19) -0.0078(12) -0.0411(18) 0.0074(14)
C10 0.088(2) 0.0388(13) 0.0543(16) 0.0046(12) -0.0348(18) -0.0092(16)
C11 0.0702(18) 0.0409(13) 0.0376(11) 0.0018(10) -0.0195(13) -0.0144(14)
C12 0.089(2) 0.0606(18) 0.0324(12) 0.0052(11) -0.0133(14) -0.0351(19)
C13 0.0641(19) 0.080(2) 0.0338(12) -0.0064(13) 0.0009(13) -0.0343(18)
C14 0.0456(14) 0.0673(18) 0.0331(11) -0.0126(11) 0.0014(10) -0.0206(14)
C15 0.0299(12) 0.095(3) 0.0490(15) -0.0297(16) 0.0069(11) -0.0107(15)
C16 0.0317(12) 0.081(2) 0.0517(14) -0.0205(15) -0.0027(11) 0.0062(15)
C17 0.0343(12) 0.0594(16) 0.0345(11) -0.0153(11) -0.0071(10) 0.0097(11)
C18 0.0484(15) 0.0539(15) 0.0469(13) -0.0128(11) -0.0121(12) 0.0224(14)
C19 0.0613(17) 0.0384(12) 0.0409(12) -0.0045(10) -0.0093(12) 0.0118(12)
C20 0.0450(14) 0.0398(13) 0.0376(12) -0.0046(9) -0.0004(11) 0.0035(11)
C21 0.0347(11) 0.0348(11) 0.0337(10) -0.0047(8) -0.0018(9) 0.0045(10)
C22 0.0329(11) 0.0420(11) 0.0300(9) -0.0087(9) -0.0035(9) 0.0026(10)
C23 0.0349(12) 0.0491(13) 0.0276(9) -0.0039(9) -0.0051(9) -0.0072(10)
C24 0.0413(12) 0.0365(11) 0.0346(10) -0.0021(9) -0.0104(10) -0.0091(10)
C25 0.0358(11) 0.0287(10) 0.0436(12) -0.0065(9) -0.0102(10) -0.0008(9)
C26 0.0339(11) 0.0287(10) 0.0405(11) -0.0095(8) -0.0001(10) -0.0022(9)
loop_
_atom_type_symbol
_atom_type_scat_dispersion_real
_atom_type_scat_dispersion_imag
_atom_type_scat_Cromer_Mann_a1
_atom_type_scat_Cromer_Mann_b1
_atom_type_scat_Cromer_Mann_a2
_atom_type_scat_Cromer_Mann_b2
_atom_type_scat_Cromer_Mann_a3
_atom_type_scat_Cromer_Mann_b3
_atom_type_scat_Cromer_Mann_a4
_atom_type_scat_Cromer_Mann_b4
_atom_type_scat_Cromer_Mann_c
_atom_type_scat_source
C 0.0033 0.0016 2.3100 20.8439 1.0200 10.2075 1.5886 0.5687 0.8650 51.6512
0.2156 'International Tables Vol C 4.2.6.8 and 6.1.1.4'
H 0.0000 0.0000 0.4930 10.5109 0.3229 26.1257 0.1402 3.1424 0.0408 57.7998
0.0030 'International Tables Vol C 4.2.6.8 and 6.1.1.4'
loop_
_geom_angle_atom_site_label_1
_geom_angle_atom_site_label_2
_geom_angle_atom_site_label_3
_geom_angle
_geom_angle_publ_flag
C2 C1 C26 121.4(2) yes
C2 C1 H11 120.0(16) no
C26 C1 H11 118.4(16) no
C1 C2 C3 120.2(3) yes
C1 C2 H21 120.3(15) no
C3 C2 H21 119.5(15) no
C2 C3 C4 119.7(2) yes
C2 C3 H31 116(2) no
C4 C3 H31 124(2) no
C3 C4 C5 121.4(2) yes
C3 C4 H41 123.1(20) no
C5 C4 H41 115.5(20) no
C4 C5 C6 120.6(3) yes
C4 C5 C26 119.9(2) yes
C6 C5 C26 119.4(3) yes
C5 C6 C7 120.4(3) yes
C5 C6 H61 118(2) no
C7 C6 H61 121(2) no
C6 C7 C8 121.5(3) yes
C6 C7 H71 121.5(18) no
C8 C7 H71 117.0(18) no
C7 C8 C9 120.4(3) yes
C7 C8 C25 119.9(3) yes
C9 C8 C25 119.6(3) yes
C8 C9 C10 120.4(3) yes
C8 C9 H91 114.8(18) no
C10 C9 H91 124.6(18) no
C9 C10 C11 121.2(3) yes
C9 C10 H101 122(2) no
C11 C10 H101 116(2) no
C10 C11 C12 121.1(3) yes
C10 C11 C24 119.3(3) yes
C12 C11 C24 119.6(3) yes
C11 C12 C13 121.1(3) yes
C11 C12 H121 116.1(19) no
C13 C12 H121 122.7(19) no
C12 C13 C14 120.4(3) yes
C12 C13 H131 122.3(19) no
C14 C13 H131 117.3(20) no
C13 C14 C15 120.9(3) yes
C13 C14 C23 119.4(3) yes
C15 C14 C23 119.6(3) yes
C14 C15 C16 121.6(3) yes
C14 C15 H151 115(2) no
C16 C15 H151 123(2) no
C15 C16 C17 120.1(3) yes
C15 C16 H161 123.5(17) no
C17 C16 H161 116.1(17) no
C16 C17 C18 120.3(3) yes
C16 C17 C22 119.6(3) yes
C18 C17 C22 119.9(2) yes
C17 C18 C19 121.1(3) yes
C17 C18 H181 119(2) no
C19 C18 H181 120(2) no
C18 C19 C20 119.5(3) yes
C18 C19 H191 121.1(19) no
C20 C19 H191 119.3(19) no
C19 C20 C21 120.6(3) yes
C19 C20 H201 119.7(17) no
C21 C20 H201 119.6(16) no
C20 C21 C22 121.2(2) yes
C20 C21 H211 117.6(14) no
C22 C21 H211 121.1(14) no
C17 C22 C21 117.5(2) yes
C17 C22 C23 119.4(2) yes
C21 C22 C23 122.9(2) yes
C22 C23 C14 117.1(2) yes
C22 C23 C24 123.6(2) yes
C14 C23 C24 119.0(2) yes
C23 C24 C11 116.5(2) yes
C23 C24 C25 125.8(2) yes
C11 C24 C25 117.7(2) yes
C24 C25 C8 117.9(2) yes
C24 C25 C26 123.8(2) yes
C8 C25 C26 117.9(2) yes
C25 C26 C5 118.9(2) yes
C25 C26 C1 123.4(2) yes
C5 C26 C1 117.4(2) yes
loop_
_geom_bond_atom_site_label_1
_geom_bond_atom_site_label_2
_geom_bond_distance
_geom_bond_publ_flag
C1 C2 1.376(3) yes
C1 C26 1.417(3) yes
C1 H11 0.95(3) no
C2 C3 1.408(4) yes
C2 H21 1.00(3) no
C3 C4 1.359(4) yes
C3 H31 1.00(3) no
C4 C5 1.407(4) yes
C4 H41 1.02(4) no
C5 C6 1.441(4) yes
C5 C26 1.419(3) yes
C6 C7 1.349(5) yes
C6 H61 1.02(4) no
C7 C8 1.420(4) yes
C7 H71 1.03(3) no
C8 C9 1.430(4) yes
C8 C25 1.413(3) yes
C9 C10 1.344(5) yes
C9 H91 0.96(3) no
C10 C11 1.416(5) yes
C10 H101 1.01(3) no
C11 C12 1.434(5) yes
C11 C24 1.416(3) yes
C12 C13 1.341(5) yes
C12 H121 1.03(3) no
C13 C14 1.423(4) yes
C13 H131 1.07(4) no
C14 C15 1.434(4) yes
C14 C23 1.412(3) yes
C15 C16 1.345(5) yes
C15 H151 0.99(4) no
C16 C17 1.427(4) yes
C16 H161 1.08(3) no
C17 C18 1.407(4) yes
C17 C22 1.420(3) yes
C18 C19 1.368(4) yes
C18 H181 1.00(4) no
C19 C20 1.400(4) yes
C19 H191 1.01(3) no
C20 C21 1.376(3) yes
C20 H201 1.01(3) no
C21 C22 1.414(3) yes
C21 H211 0.99(3) no
C22 C23 1.455(3) yes
C23 C24 1.446(3) yes
C24 C25 1.448(3) yes
C25 C26 1.461(3) yes
