#------------------------------------------------------------------------------
#$Date: 2015-06-04 11:44:53 +0300 (Thu, 04 Jun 2015) $
#$Revision: 137874 $
#$URL: svn://www.crystallography.net/cod/cif/7/11/72/7117257.cif $
#------------------------------------------------------------------------------
#
# This file is available in the Crystallography Open Database (COD),
# http://www.crystallography.net/
#
# All data on this site have been placed in the public domain by the
# contributors.
#
data_7117257
loop_
_publ_author_name
'Viswanadha G. Saraswatula'
'Binoy K. Saha'
_publ_section_title
;
 A thermal expansion investigation of the melting point anomaly in
 trihalomesitylenes
;
_journal_name_full               Chem.Commun.
_journal_page_first              9829
_journal_paper_doi               10.1039/C5cc03033A
_journal_volume                  51
_journal_year                    2015
_chemical_formula_moiety         'C12 H18'
_chemical_formula_sum            'C12 H18'
_chemical_formula_weight         162.26
_chemical_name_systematic
;
Hexamethylbenzene  
;
_space_group_crystal_system      triclinic
_space_group_IT_number           2
_space_group_name_Hall           '-P 1'
_space_group_name_H-M_alt        'P -1'
_symmetry_space_group_name_Hall  '-P 1'
_symmetry_space_group_name_H-M   'P -1'
_atom_sites_solution_hydrogens   geom
_atom_sites_solution_primary     direct
_atom_sites_solution_secondary   difmap
_audit_creation_date             2013-09-28
_audit_creation_method
;
  Olex2 1.2
  (compiled Dec  5 2012 16:17:34, GUI svn.r4385)
;
_audit_update_record
;
2015-04-06 deposited with the CCDC.
2015-05-07 downloaded from the CCDC.
;
_cell_angle_alpha                103.949(16)
_cell_angle_beta                 98.651(13)
_cell_angle_gamma                99.531(17)
_cell_formula_units_Z            1
_cell_length_a                   5.2748(9)
_cell_length_b                   6.2602(15)
_cell_length_c                   8.0316(12)
_cell_measurement_reflns_used    868
_cell_measurement_temperature    226(2)
_cell_measurement_theta_max      28.7458
_cell_measurement_theta_min      5.2206
_cell_volume                     248.77(9)
_computing_cell_refinement
;
CrysAlisPro, Agilent Technologies,
Version 1.171.36.21 (release 14-08-2012 CrysAlis171 .NET)
(compiled Sep 14 2012,17:21:16)
;
_computing_data_collection
;
CrysAlisPro, Agilent Technologies,
Version 1.171.36.21 (release 14-08-2012 CrysAlis171 .NET)
(compiled Sep 14 2012,17:21:16)
;
_computing_data_reduction
;
CrysAlisPro, Agilent Technologies,
Version 1.171.36.21 (release 14-08-2012 CrysAlis171 .NET)
(compiled Sep 14 2012,17:21:16)
;
_computing_molecular_graphics
;
O. V. Dolomanov, L. J. Bourhis, R. J. Gildea, J. A. K. Howard and H. Puschmann,
OLEX2: a complete structure solution, refinement and analysis program.
J. Appl. Cryst. (2009). 42, 339-341.
;
_computing_publication_material
;
O. V. Dolomanov, L. J. Bourhis, R. J. Gildea, J. A. K. Howard and H. Puschmann,
OLEX2: a complete structure solution, refinement and analysis program.
J. Appl. Cryst. (2009). 42, 339-341.
;
_computing_structure_refinement
;
SHELXL, G.M. Sheldrick, Acta Cryst.
(2008). A64, 112-122
;
_computing_structure_solution
;
SHELXS, G.M. Sheldrick, Acta Cryst.
(2008). A64, 112-122
;
_diffrn_ambient_temperature      226(2)
_diffrn_detector_area_resol_mean 15.9821
_diffrn_measured_fraction_theta_full 0.9901
_diffrn_measured_fraction_theta_max 0.9208
_diffrn_measurement_details
;
  1 omega  -47.00  -17.00   1.0000    5.0000
omega____ theta____ kappa____ phi______ frames
    -      -17.4960  109.0000   32.0000 30

  2 omega  -23.00   21.00   1.0000    5.0000
omega____ theta____ kappa____ phi______ frames
    -      -17.4960  -99.0000 -150.0000 44

  3 omega  -85.00  -41.00   1.0000    5.0000
omega____ theta____ kappa____ phi______ frames
    -      -17.4960  178.0000   60.0000 44

  4 omega   25.00   61.00   1.0000    5.0000
omega____ theta____ kappa____ phi______ frames
    -       19.2928  -99.0000    0.0000 36

  5 omega  -46.00   36.00   1.0000    5.0000
omega____ theta____ kappa____ phi______ frames
    -       19.2928  -37.0000  -60.0000 82

  6 omega  -24.00   90.00   1.0000    5.0000
omega____ theta____ kappa____ phi______ frames
    -       19.2928    0.0000  -30.0000 114

  7 omega  -93.00  -43.00   1.0000    5.0000
omega____ theta____ kappa____ phi______ frames
    -      -17.4960 -178.0000  120.0000 50

  8 omega  -86.00    4.00   1.0000    5.0000
omega____ theta____ kappa____ phi______ frames
    -      -17.4960  -57.0000    0.0000 90
;
_diffrn_measurement_device_type  'Xcalibur, Eos'
_diffrn_measurement_method       '\w scans'
_diffrn_orient_matrix_UB_11      -0.0691614000
_diffrn_orient_matrix_UB_12      -0.0493185000
_diffrn_orient_matrix_UB_13      -0.0874844000
_diffrn_orient_matrix_UB_21      0.0556714000
_diffrn_orient_matrix_UB_22      0.0968245000
_diffrn_orient_matrix_UB_23      -0.0236574000
_diffrn_orient_matrix_UB_31      0.1071209000
_diffrn_orient_matrix_UB_32      -0.0495332000
_diffrn_orient_matrix_UB_33      -0.0202057000
_diffrn_radiation_monochromator  graphite
_diffrn_radiation_type           'Mo K\a'
_diffrn_radiation_wavelength     0.7107
_diffrn_reflns_av_R_equivalents  0.0195
_diffrn_reflns_av_unetI/netI     0.0218
_diffrn_reflns_limit_h_max       6
_diffrn_reflns_limit_h_min       -7
_diffrn_reflns_limit_k_max       8
_diffrn_reflns_limit_k_min       -8
_diffrn_reflns_limit_l_max       10
_diffrn_reflns_limit_l_min       -10
_diffrn_reflns_number            2321
_diffrn_reflns_theta_full        25.00
_diffrn_reflns_theta_max         28.81
_diffrn_reflns_theta_min         5.23
_diffrn_source                   'Enhance (Mo) X-ray Source'
_exptl_absorpt_coefficient_mu    0.060
_exptl_absorpt_correction_T_max  1.00000
_exptl_absorpt_correction_T_min  0.64740
_exptl_absorpt_correction_type   multi-scan
_exptl_absorpt_process_details
;
CrysAlisPro, Agilent Technologies,
Version 1.171.36.21 (release 14-08-2012 CrysAlis171 .NET)
(compiled Sep 14 2012,17:21:16)
Empirical absorption correction using spherical harmonics,
 implemented in SCALE3 ABSPACK scaling algorithm.
;
_exptl_crystal_colour            colourless
_exptl_crystal_colour_primary    colourless
_exptl_crystal_density_diffrn    1.083
_exptl_crystal_density_method    'not measured'
_exptl_crystal_description       block
_exptl_crystal_F_000             90
_exptl_crystal_size_max          0.8
_exptl_crystal_size_mid          0.5
_exptl_crystal_size_min          0.4
_refine_diff_density_max         0.562
_refine_diff_density_min         -0.245
_refine_diff_density_rms         0.077
_refine_ls_extinction_method     none
_refine_ls_goodness_of_fit_ref   1.138
_refine_ls_hydrogen_treatment    constr
_refine_ls_matrix_type           full
_refine_ls_number_parameters     58
_refine_ls_number_reflns         1135
_refine_ls_number_restraints     0
_refine_ls_restrained_S_all      1.138
_refine_ls_R_factor_all          0.0941
_refine_ls_R_factor_gt           0.0835
_refine_ls_shift/su_max          0.000
_refine_ls_shift/su_mean         0.000
_refine_ls_structure_factor_coef Fsqd
_refine_ls_weighting_details
'calc w=1/[\s^2^(Fo^2^)+(0.1670P)^2^+0.0597P] where P=(Fo^2^+2Fc^2^)/3'
_refine_ls_weighting_scheme      calc
_refine_ls_wR_factor_gt          0.2517
_refine_ls_wR_factor_ref         0.2724
_reflns_number_gt                920
_reflns_number_total             1135
_reflns_threshold_expression     >2sigma(I)
_cod_data_source_file            c5cc03033a2.cif
_cod_data_source_block           hmb-226K
_cod_original_cell_volume        248.77(8)
_cod_database_code               7117257
loop_
_space_group_symop_id
_space_group_symop_operation_xyz
1 'x, y, z'
2 '-x, -y, -z'
loop_
_atom_site_label
_atom_site_type_symbol
_atom_site_fract_x
_atom_site_fract_y
_atom_site_fract_z
_atom_site_U_iso_or_equiv
_atom_site_adp_type
_atom_site_occupancy
_atom_site_symmetry_multiplicity
_atom_site_calc_flag
_atom_site_refinement_flags
_atom_site_disorder_assembly
_atom_site_disorder_group
C2 C 0.4317(3) 0.3865(3) 0.3211(2) 0.0323(6) Uani 1 1 d . . .
C3 C 0.6140(3) 0.3187(3) 0.4329(2) 0.0319(6) Uani 1 1 d . . .
C1 C 0.3203(3) 0.5695(3) 0.3878(2) 0.0323(6) Uani 1 1 d . . .
C6 C 0.7400(4) 0.1252(4) 0.3615(3) 0.0460(7) Uani 1 1 d . . .
H6A H 0.6641 -0.0061 0.3953 0.069 Uiso 1 1 calc R . .
H6B H 0.9272 0.1666 0.4086 0.069 Uiso 1 1 calc R . .
H6C H 0.7095 0.0909 0.2349 0.069 Uiso 1 1 calc R . .
C5 C 0.3551(5) 0.2621(4) 0.1281(3) 0.0497(7) Uani 1 1 d . . .
H5A H 0.4996 0.2979 0.0709 0.075 Uiso 1 1 calc R . .
H5B H 0.2025 0.3076 0.0753 0.075 Uiso 1 1 calc R . .
H5C H 0.3141 0.1013 0.1147 0.075 Uiso 1 1 calc R . .
C4 C 0.1272(4) 0.6471(4) 0.2685(3) 0.0484(7) Uani 1 1 d . . .
H4A H 0.1716 0.6219 0.1534 0.073 Uiso 1 1 calc R . .
H4B H 0.1346 0.8063 0.3166 0.073 Uiso 1 1 calc R . .
H4C H -0.0486 0.5628 0.2589 0.073 Uiso 1 1 calc R . .
loop_
_atom_site_aniso_label
_atom_site_aniso_U_11
_atom_site_aniso_U_22
_atom_site_aniso_U_33
_atom_site_aniso_U_23
_atom_site_aniso_U_13
_atom_site_aniso_U_12
C2 0.0330(10) 0.0326(10) 0.0307(9) 0.0080(7) 0.0048(7) 0.0076(7)
C3 0.0322(10) 0.0294(9) 0.0355(10) 0.0093(7) 0.0073(7) 0.0092(7)
C1 0.0307(10) 0.0323(10) 0.0353(10) 0.0119(8) 0.0035(7) 0.0094(7)
C6 0.0494(13) 0.0386(11) 0.0511(13) 0.0066(9) 0.0119(9) 0.0194(9)
C5 0.0625(14) 0.0521(13) 0.0326(11) 0.0058(9) 0.0054(9) 0.0188(11)
C4 0.0456(12) 0.0551(13) 0.0469(12) 0.0191(10) -0.0011(9) 0.0192(10)
loop_
_atom_type_symbol
_atom_type_description
_atom_type_scat_dispersion_real
_atom_type_scat_dispersion_imag
_atom_type_scat_source
C C 0.0033 0.0016 'International Tables Vol C Tables 4.2.6.8 and 6.1.1.4'
H H 0.0000 0.0000 'International Tables Vol C Tables 4.2.6.8 and 6.1.1.4'
loop_
_geom_angle_atom_site_label_1
_geom_angle_atom_site_label_2
_geom_angle_atom_site_label_3
_geom_angle
_geom_angle_site_symmetry_1
_geom_angle_site_symmetry_3
C3 C2 C5 120.06(16) . .
C1 C2 C3 120.01(17) . .
C1 C2 C5 119.93(16) . .
C2 C3 C6 120.44(17) . .
C1 C3 C2 119.95(16) 2_666 .
C1 C3 C6 119.61(16) 2_666 .
C2 C1 C3 120.02(16) . 2_666
C2 C1 C4 120.64(17) . .
C3 C1 C4 119.34(17) 2_666 .
C3 C6 H6A 109.5 . .
C3 C6 H6B 109.5 . .
C3 C6 H6C 109.5 . .
H6A C6 H6B 109.5 . .
H6A C6 H6C 109.5 . .
H6B C6 H6C 109.5 . .
C2 C5 H5A 109.5 . .
C2 C5 H5B 109.5 . .
C2 C5 H5C 109.5 . .
H5A C5 H5B 109.5 . .
H5A C5 H5C 109.5 . .
H5B C5 H5C 109.5 . .
C1 C4 H4A 109.5 . .
C1 C4 H4B 109.5 . .
C1 C4 H4C 109.5 . .
H4A C4 H4B 109.5 . .
H4A C4 H4C 109.5 . .
H4B C4 H4C 109.5 . .
loop_
_geom_bond_atom_site_label_1
_geom_bond_atom_site_label_2
_geom_bond_distance
_geom_bond_site_symmetry_2
C2 C3 1.404(3) .
C2 C1 1.402(3) .
C2 C5 1.515(3) .
C3 C1 1.403(3) 2_666
C3 C6 1.511(3) .
C1 C3 1.403(3) 2_666
C1 C4 1.512(2) .
C6 H6A 0.9700 .
C6 H6B 0.9700 .
C6 H6C 0.9700 .
C5 H5A 0.9700 .
C5 H5B 0.9700 .
C5 H5C 0.9700 .
C4 H4A 0.9700 .
C4 H4B 0.9700 .
C4 H4C 0.9700 .
