#------------------------------------------------------------------------------
#$Date: 2015-06-04 11:44:53 +0300 (Thu, 04 Jun 2015) $
#$Revision: 137874 $
#$URL: svn://www.crystallography.net/cod/cif/7/11/72/7117254.cif $
#------------------------------------------------------------------------------
#
# This file is available in the Crystallography Open Database (COD),
# http://www.crystallography.net/
#
# All data on this site have been placed in the public domain by the
# contributors.
#
data_7117254
loop_
_publ_author_name
'Viswanadha G. Saraswatula'
'Binoy K. Saha'
_publ_section_title
;
 A thermal expansion investigation of the melting point anomaly in
 trihalomesitylenes
;
_journal_name_full               Chem.Commun.
_journal_page_first              9829
_journal_paper_doi               10.1039/C5cc03033A
_journal_volume                  51
_journal_year                    2015
_chemical_formula_moiety         'C12 H18'
_chemical_formula_sum            'C12 H18'
_chemical_formula_weight         162.26
_chemical_name_systematic
;
Hexamethylbenzene 
;
_space_group_crystal_system      triclinic
_space_group_IT_number           2
_space_group_name_Hall           '-P 1'
_space_group_name_H-M_alt        'P -1'
_symmetry_space_group_name_Hall  '-P 1'
_symmetry_space_group_name_H-M   'P -1'
_atom_sites_solution_hydrogens   geom
_atom_sites_solution_primary     iterative
_atom_sites_solution_secondary   difmap
_audit_creation_date             2013-09-28
_audit_creation_method
;
  Olex2 1.2
  (compiled Dec  5 2012 16:17:34, GUI svn.r4385)
;
_audit_update_record
;
2015-04-06 deposited with the CCDC.
2015-05-07 downloaded from the CCDC.
;
_cell_angle_alpha                103.859(9)
_cell_angle_beta                 98.602(8)
_cell_angle_gamma                100.131(9)
_cell_formula_units_Z            1
_cell_length_a                   5.2460(5)
_cell_length_b                   6.1956(7)
_cell_length_c                   7.9824(7)
_cell_measurement_reflns_used    995
_cell_measurement_temperature    118(2)
_cell_measurement_theta_max      29.0265
_cell_measurement_theta_min      4.3610
_cell_volume                     242.93(4)
_computing_cell_refinement
;
CrysAlisPro, Agilent Technologies,
Version 1.171.36.21 (release 14-08-2012 CrysAlis171 .NET)
(compiled Sep 14 2012,17:21:16)
;
_computing_data_collection
;
CrysAlisPro, Agilent Technologies,
Version 1.171.36.21 (release 14-08-2012 CrysAlis171 .NET)
(compiled Sep 14 2012,17:21:16)
;
_computing_data_reduction
;
CrysAlisPro, Agilent Technologies,
Version 1.171.36.21 (release 14-08-2012 CrysAlis171 .NET)
(compiled Sep 14 2012,17:21:16)
;
_computing_molecular_graphics
;
O. V. Dolomanov, L. J. Bourhis, R. J. Gildea, J. A. K. Howard and H. Puschmann,
OLEX2: a complete structure solution, refinement and analysis program.
J. Appl. Cryst. (2009). 42, 339-341.
;
_computing_publication_material
;
O. V. Dolomanov, L. J. Bourhis, R. J. Gildea, J. A. K. Howard and H. Puschmann,
OLEX2: a complete structure solution, refinement and analysis program.
J. Appl. Cryst. (2009). 42, 339-341.
;
_computing_structure_refinement
;
SHELXL, G.M. Sheldrick, Acta Cryst.
(2008). A64, 112-122
;
_computing_structure_solution
;
olex2.solve (L.J. Bourhis, O.V. Dolomanov, R.J. Gildea, J.A.K. Howard,
H. Puschmann, in preparation, 2011)
;
_diffrn_ambient_temperature      118(2)
_diffrn_detector_area_resol_mean 15.9821
_diffrn_measured_fraction_theta_full 0.9909
_diffrn_measured_fraction_theta_max 0.9082
_diffrn_measurement_details
;
  1 omega  -86.00    4.00   1.0000    5.0000
omega____ theta____ kappa____ phi______ frames
    -      -17.4960  -57.0000   30.0000 90

  2 omega  -27.00    0.00   1.0000    5.0000
omega____ theta____ kappa____ phi______ frames
    -      -17.4960  107.0000   33.0000 27

  3 omega  -39.00   51.00   1.0000    5.0000
omega____ theta____ kappa____ phi______ frames
    -      -17.4960   57.0000 -180.0000 90

  4 omega  -23.00    4.00   1.0000    5.0000
omega____ theta____ kappa____ phi______ frames
    -      -17.4960  -99.0000 -180.0000 27

  5 omega  -19.00   11.00   1.0000    5.0000
omega____ theta____ kappa____ phi______ frames
    -      -17.4960  -99.0000  -60.0000 30

  6 omega  -93.00  -45.00   1.0000    5.0000
omega____ theta____ kappa____ phi______ frames
    -      -17.4960 -178.0000  120.0000 48

  7 omega    2.00   41.00   1.0000    5.0000
omega____ theta____ kappa____ phi______ frames
    -       19.2928   57.0000   30.0000 39

  8 omega   17.00   85.00   1.0000    5.0000
omega____ theta____ kappa____ phi______ frames
    -       19.2928   37.0000  -30.0000 68

  9 omega  -43.00   35.00   1.0000    5.0000
omega____ theta____ kappa____ phi______ frames
    -      -17.4960   37.0000    0.0000 78
;
_diffrn_measurement_device_type  'Xcalibur, Eos'
_diffrn_measurement_method       '\w scans'
_diffrn_orient_matrix_UB_11      -0.0723795000
_diffrn_orient_matrix_UB_12      -0.0493838000
_diffrn_orient_matrix_UB_13      -0.0875050000
_diffrn_orient_matrix_UB_21      0.0571900000
_diffrn_orient_matrix_UB_22      0.0976682000
_diffrn_orient_matrix_UB_23      -0.0242235000
_diffrn_orient_matrix_UB_31      0.1055740000
_diffrn_orient_matrix_UB_32      -0.0513572000
_diffrn_orient_matrix_UB_33      -0.0219877000
_diffrn_radiation_monochromator  graphite
_diffrn_radiation_type           'Mo K\a'
_diffrn_radiation_wavelength     0.7107
_diffrn_reflns_av_R_equivalents  0.0283
_diffrn_reflns_av_unetI/netI     0.0284
_diffrn_reflns_limit_h_max       7
_diffrn_reflns_limit_h_min       -7
_diffrn_reflns_limit_k_max       7
_diffrn_reflns_limit_k_min       -8
_diffrn_reflns_limit_l_max       10
_diffrn_reflns_limit_l_min       -10
_diffrn_reflns_number            2269
_diffrn_reflns_theta_full        25.00
_diffrn_reflns_theta_max         29.09
_diffrn_reflns_theta_min         4.37
_diffrn_source                   'Enhance (Mo) X-ray Source'
_exptl_absorpt_coefficient_mu    0.061
_exptl_absorpt_correction_T_max  1.00000
_exptl_absorpt_correction_T_min  0.85856
_exptl_absorpt_correction_type   multi-scan
_exptl_absorpt_process_details
;
CrysAlisPro, Agilent Technologies,
Version 1.171.36.21 (release 14-08-2012 CrysAlis171 .NET)
(compiled Sep 14 2012,17:21:16)
Empirical absorption correction using spherical harmonics,
 implemented in SCALE3 ABSPACK scaling algorithm.
;
_exptl_crystal_colour            colourless
_exptl_crystal_colour_primary    colourless
_exptl_crystal_density_diffrn    1.109
_exptl_crystal_density_method    'not measured'
_exptl_crystal_description       block
_exptl_crystal_F_000             90
_exptl_crystal_recrystallization_method 'Re-crystallisation from solvent: '
_exptl_crystal_size_max          0.8
_exptl_crystal_size_mid          0.5
_exptl_crystal_size_min          0.4
_refine_diff_density_max         0.750
_refine_diff_density_min         -0.218
_refine_diff_density_rms         0.100
_refine_ls_extinction_method     none
_refine_ls_goodness_of_fit_ref   1.135
_refine_ls_hydrogen_treatment    constr
_refine_ls_matrix_type           full
_refine_ls_number_parameters     58
_refine_ls_number_reflns         1103
_refine_ls_number_restraints     0
_refine_ls_restrained_S_all      1.135
_refine_ls_R_factor_all          0.0763
_refine_ls_R_factor_gt           0.0702
_refine_ls_shift/su_max          0.000
_refine_ls_shift/su_mean         0.000
_refine_ls_structure_factor_coef Fsqd
_refine_ls_weighting_details
'calc w=1/[\s^2^(Fo^2^)+(0.1468P)^2^+0.0434P] where P=(Fo^2^+2Fc^2^)/3'
_refine_ls_weighting_scheme      calc
_refine_ls_wR_factor_gt          0.2140
_refine_ls_wR_factor_ref         0.2237
_reflns_number_gt                949
_reflns_number_total             1103
_reflns_threshold_expression     >2sigma(I)
_cod_data_source_file            c5cc03033a2.cif
_cod_data_source_block           hmb-118K
_cod_database_code               7117254
loop_
_space_group_symop_id
_space_group_symop_operation_xyz
1 'x, y, z'
2 '-x, -y, -z'
loop_
_atom_site_label
_atom_site_type_symbol
_atom_site_fract_x
_atom_site_fract_y
_atom_site_fract_z
_atom_site_U_iso_or_equiv
_atom_site_adp_type
_atom_site_occupancy
_atom_site_symmetry_multiplicity
_atom_site_calc_flag
_atom_site_refinement_flags
_atom_site_disorder_assembly
_atom_site_disorder_group
C2 C 0.4316(3) 0.3853(2) 0.31958(18) 0.0180(5) Uani 1 1 d . . .
C3 C 0.6150(3) 0.3177(2) 0.43309(18) 0.0176(5) Uani 1 1 d . . .
C1 C 0.3205(3) 0.5702(2) 0.38639(19) 0.0182(5) Uani 1 1 d . . .
C6 C 0.7482(3) 0.1269(2) 0.3612(2) 0.0242(5) Uani 1 1 d . . .
H6A H 0.6655 -0.0125 0.3874 0.036 Uiso 1 1 calc R . .
H6B H 0.9364 0.1698 0.4163 0.036 Uiso 1 1 calc R . .
H6C H 0.7287 0.1001 0.2334 0.036 Uiso 1 1 calc R . .
C5 C 0.3508(3) 0.2560(3) 0.1263(2) 0.0262(5) Uani 1 1 d . . .
H5A H 0.4840 0.3100 0.0629 0.039 Uiso 1 1 calc R . .
H5B H 0.1794 0.2814 0.0772 0.039 Uiso 1 1 calc R . .
H5C H 0.3367 0.0928 0.1136 0.039 Uiso 1 1 calc R . .
C4 C 0.1316(3) 0.6513(3) 0.2651(2) 0.0250(5) Uani 1 1 d . . .
H4A H 0.1736 0.6185 0.1473 0.038 Uiso 1 1 calc R . .
H4B H 0.1492 0.8158 0.3112 0.038 Uiso 1 1 calc R . .
H4C H -0.0501 0.5719 0.2584 0.038 Uiso 1 1 calc R . .
loop_
_atom_site_aniso_label
_atom_site_aniso_U_11
_atom_site_aniso_U_22
_atom_site_aniso_U_33
_atom_site_aniso_U_23
_atom_site_aniso_U_13
_atom_site_aniso_U_12
C2 0.0189(8) 0.0189(8) 0.0161(8) 0.0048(5) 0.0033(6) 0.0044(6)
C3 0.0180(8) 0.0174(7) 0.0180(8) 0.0054(5) 0.0034(6) 0.0053(5)
C1 0.0170(8) 0.0190(8) 0.0200(8) 0.0074(6) 0.0029(6) 0.0058(5)
C6 0.0269(9) 0.0216(8) 0.0246(9) 0.0037(6) 0.0054(6) 0.0099(6)
C5 0.0330(9) 0.0275(9) 0.0171(8) 0.0036(6) 0.0023(6) 0.0101(6)
C4 0.0244(8) 0.0299(9) 0.0210(8) 0.0084(6) -0.0011(6) 0.0098(6)
loop_
_atom_type_symbol
_atom_type_description
_atom_type_scat_dispersion_real
_atom_type_scat_dispersion_imag
_atom_type_scat_source
C C 0.0033 0.0016 'International Tables Vol C Tables 4.2.6.8 and 6.1.1.4'
H H 0.0000 0.0000 'International Tables Vol C Tables 4.2.6.8 and 6.1.1.4'
loop_
_geom_angle_atom_site_label_1
_geom_angle_atom_site_label_2
_geom_angle_atom_site_label_3
_geom_angle
_geom_angle_site_symmetry_1
_geom_angle_site_symmetry_3
C3 C2 C5 119.99(13) . .
C1 C2 C3 119.94(14) . .
C1 C2 C5 120.06(14) . .
C2 C3 C6 120.54(13) . .
C1 C3 C2 120.00(13) 2_666 .
C1 C3 C6 119.45(13) 2_666 .
C2 C1 C4 120.66(14) . .
C3 C1 C2 120.02(14) 2_666 .
C3 C1 C4 119.32(13) 2_666 .
C3 C6 H6A 109.5 . .
C3 C6 H6B 109.5 . .
C3 C6 H6C 109.5 . .
H6A C6 H6B 109.5 . .
H6A C6 H6C 109.5 . .
H6B C6 H6C 109.5 . .
C2 C5 H5A 109.5 . .
C2 C5 H5B 109.5 . .
C2 C5 H5C 109.5 . .
H5A C5 H5B 109.5 . .
H5A C5 H5C 109.5 . .
H5B C5 H5C 109.5 . .
C1 C4 H4A 109.5 . .
C1 C4 H4B 109.5 . .
C1 C4 H4C 109.5 . .
H4A C4 H4B 109.5 . .
H4A C4 H4C 109.5 . .
H4B C4 H4C 109.5 . .
loop_
_geom_bond_atom_site_label_1
_geom_bond_atom_site_label_2
_geom_bond_distance
_geom_bond_site_symmetry_2
C2 C3 1.409(2) .
C2 C1 1.404(2) .
C2 C5 1.515(2) .
C3 C1 1.402(2) 2_666
C3 C6 1.5165(19) .
C1 C3 1.402(2) 2_666
C1 C4 1.514(2) .
C6 H6A 0.9800 .
C6 H6B 0.9800 .
C6 H6C 0.9800 .
C5 H5A 0.9800 .
C5 H5B 0.9800 .
C5 H5C 0.9800 .
C4 H4A 0.9800 .
C4 H4B 0.9800 .
C4 H4C 0.9800 .
