#------------------------------------------------------------------------------
#$Date: 2015-06-04 11:44:53 +0300 (Thu, 04 Jun 2015) $
#$Revision: 137874 $
#$URL: svn://www.crystallography.net/cod/cif/7/11/72/7117258.cif $
#------------------------------------------------------------------------------
#
# This file is available in the Crystallography Open Database (COD),
# http://www.crystallography.net/
#
# All data on this site have been placed in the public domain by the
# contributors.
#
data_7117258
loop_
_publ_author_name
'Viswanadha G. Saraswatula'
'Binoy K. Saha'
_publ_section_title
;
 A thermal expansion investigation of the melting point anomaly in
 trihalomesitylenes
;
_journal_name_full               Chem.Commun.
_journal_page_first              9829
_journal_paper_doi               10.1039/C5cc03033A
_journal_volume                  51
_journal_year                    2015
_chemical_formula_moiety         'C12 H18'
_chemical_formula_sum            'C12 H18'
_chemical_formula_weight         162.26
_chemical_name_systematic
;
Hexamethylbenzene  
;
_space_group_crystal_system      triclinic
_space_group_IT_number           2
_space_group_name_Hall           '-P 1'
_space_group_name_H-M_alt        'P -1'
_symmetry_space_group_name_Hall  '-P 1'
_symmetry_space_group_name_H-M   'P -1'
_atom_sites_solution_hydrogens   geom
_atom_sites_solution_primary     direct
_atom_sites_solution_secondary   difmap
_audit_creation_date             2013-09-28
_audit_creation_method
;
  Olex2 1.2
  (compiled Dec  5 2012 16:17:34, GUI svn.r4385)
;
_audit_update_record
;
2015-04-06 deposited with the CCDC.
2015-05-07 downloaded from the CCDC.
;
_cell_angle_alpha                104.026(8)
_cell_angle_beta                 98.839(8)
_cell_angle_gamma                99.456(8)
_cell_formula_units_Z            1
_cell_length_a                   5.2944(5)
_cell_length_b                   6.2771(6)
_cell_length_c                   8.0612(7)
_cell_measurement_reflns_used    828
_cell_measurement_temperature    262(2)
_cell_measurement_theta_max      29.0423
_cell_measurement_theta_min      4.6668
_cell_volume                     251.09(4)
_computing_cell_refinement
;
CrysAlisPro, Agilent Technologies,
Version 1.171.36.21 (release 14-08-2012 CrysAlis171 .NET)
(compiled Sep 14 2012,17:21:16)
;
_computing_data_collection
;
CrysAlisPro, Agilent Technologies,
Version 1.171.36.21 (release 14-08-2012 CrysAlis171 .NET)
(compiled Sep 14 2012,17:21:16)
;
_computing_data_reduction
;
CrysAlisPro, Agilent Technologies,
Version 1.171.36.21 (release 14-08-2012 CrysAlis171 .NET)
(compiled Sep 14 2012,17:21:16)
;
_computing_molecular_graphics
;
O. V. Dolomanov, L. J. Bourhis, R. J. Gildea, J. A. K. Howard and H. Puschmann,
OLEX2: a complete structure solution, refinement and analysis program.
J. Appl. Cryst. (2009). 42, 339-341.
;
_computing_publication_material
;
O. V. Dolomanov, L. J. Bourhis, R. J. Gildea, J. A. K. Howard and H. Puschmann,
OLEX2: a complete structure solution, refinement and analysis program.
J. Appl. Cryst. (2009). 42, 339-341.
;
_computing_structure_refinement
;
SHELXL, G.M. Sheldrick, Acta Cryst.
(2008). A64, 112-122
;
_computing_structure_solution
;
SHELXS, G.M. Sheldrick, Acta Cryst.
(2008). A64, 112-122
;
_diffrn_ambient_temperature      262(2)
_diffrn_detector_area_resol_mean 15.9821
_diffrn_measured_fraction_theta_full 0.9893
_diffrn_measured_fraction_theta_max 0.9118
_diffrn_measurement_details
;
  1 omega  -80.00   12.00   1.0000    5.0000
omega____ theta____ kappa____ phi______ frames
    -      -17.4960  -77.0000   90.0000 92

  2 omega   -7.00   21.00   1.0000    5.0000
omega____ theta____ kappa____ phi______ frames
    -      -17.4960  -99.0000  -30.0000 28

  3 omega  -25.00   14.00   1.0000    5.0000
omega____ theta____ kappa____ phi______ frames
    -      -17.4960  -99.0000 -150.0000 39

  4 omega    1.00   88.00   1.0000    5.0000
omega____ theta____ kappa____ phi______ frames
    -       19.2928   57.0000  -30.0000 87

  5 omega  -22.00   84.00   1.0000    5.0000
omega____ theta____ kappa____ phi______ frames
    -       19.2928   19.0000  -90.0000 106

  6 omega   32.00   96.00   1.0000    5.0000
omega____ theta____ kappa____ phi______ frames
    -       19.2928 -178.0000 -150.0000 64

  7 omega   35.00   95.00   1.0000    5.0000
omega____ theta____ kappa____ phi______ frames
    -       19.2928  178.0000  -30.0000 60
;
_diffrn_measurement_device_type  'Xcalibur, Eos'
_diffrn_measurement_method       '\w scans'
_diffrn_orient_matrix_UB_11      -0.0730030000
_diffrn_orient_matrix_UB_12      -0.0472899000
_diffrn_orient_matrix_UB_13      -0.0865255000
_diffrn_orient_matrix_UB_21      0.0594014000
_diffrn_orient_matrix_UB_22      0.0945428000
_diffrn_orient_matrix_UB_23      -0.0242481000
_diffrn_orient_matrix_UB_31      0.1018553000
_diffrn_orient_matrix_UB_32      -0.0549336000
_diffrn_orient_matrix_UB_33      -0.0223843000
_diffrn_radiation_monochromator  graphite
_diffrn_radiation_type           'Mo K\a'
_diffrn_radiation_wavelength     0.7107
_diffrn_reflns_av_R_equivalents  0.0199
_diffrn_reflns_av_unetI/netI     0.0279
_diffrn_reflns_limit_h_max       6
_diffrn_reflns_limit_h_min       -7
_diffrn_reflns_limit_k_max       8
_diffrn_reflns_limit_k_min       -8
_diffrn_reflns_limit_l_max       10
_diffrn_reflns_limit_l_min       -10
_diffrn_reflns_number            2311
_diffrn_reflns_theta_full        25.00
_diffrn_reflns_theta_max         29.11
_diffrn_reflns_theta_min         4.68
_diffrn_source                   'Enhance (Mo) X-ray Source'
_exptl_absorpt_coefficient_mu    0.059
_exptl_absorpt_correction_T_max  1.00000
_exptl_absorpt_correction_T_min  0.71322
_exptl_absorpt_correction_type   multi-scan
_exptl_absorpt_process_details
;
CrysAlisPro, Agilent Technologies,
Version 1.171.36.21 (release 14-08-2012 CrysAlis171 .NET)
(compiled Sep 14 2012,17:21:16)
Empirical absorption correction using spherical harmonics,
 implemented in SCALE3 ABSPACK scaling algorithm.
;
_exptl_crystal_colour            colourless
_exptl_crystal_colour_primary    colourless
_exptl_crystal_density_diffrn    1.073
_exptl_crystal_density_method    'not measured'
_exptl_crystal_description       block
_exptl_crystal_F_000             90
_exptl_crystal_size_max          0.8
_exptl_crystal_size_mid          0.5
_exptl_crystal_size_min          0.4
_refine_diff_density_max         0.444
_refine_diff_density_min         -0.224
_refine_diff_density_rms         0.063
_refine_ls_extinction_method     none
_refine_ls_goodness_of_fit_ref   1.118
_refine_ls_hydrogen_treatment    constr
_refine_ls_matrix_type           full
_refine_ls_number_parameters     58
_refine_ls_number_reflns         1142
_refine_ls_number_restraints     0
_refine_ls_restrained_S_all      1.118
_refine_ls_R_factor_all          0.0959
_refine_ls_R_factor_gt           0.0822
_refine_ls_shift/su_max          0.002
_refine_ls_shift/su_mean         0.000
_refine_ls_structure_factor_coef Fsqd
_refine_ls_weighting_details
'calc w=1/[\s^2^(Fo^2^)+(0.1696P)^2^+0.0421P] where P=(Fo^2^+2Fc^2^)/3'
_refine_ls_weighting_scheme      calc
_refine_ls_wR_factor_gt          0.2540
_refine_ls_wR_factor_ref         0.2755
_reflns_number_gt                890
_reflns_number_total             1142
_reflns_threshold_expression     >2sigma(I)
_cod_data_source_file            c5cc03033a2.cif
_cod_data_source_block           hmb-262K
_cod_database_code               7117258
loop_
_space_group_symop_id
_space_group_symop_operation_xyz
1 'x, y, z'
2 '-x, -y, -z'
loop_
_atom_site_label
_atom_site_type_symbol
_atom_site_fract_x
_atom_site_fract_y
_atom_site_fract_z
_atom_site_U_iso_or_equiv
_atom_site_adp_type
_atom_site_occupancy
_atom_site_symmetry_multiplicity
_atom_site_calc_flag
_atom_site_refinement_flags
_atom_site_disorder_assembly
_atom_site_disorder_group
C2 C 0.4320(3) 0.3873(3) 0.3218(2) 0.0396(6) Uani 1 1 d . . .
C3 C 0.6133(3) 0.3193(3) 0.4333(2) 0.0393(6) Uani 1 1 d . . .
C1 C 0.3198(3) 0.5695(3) 0.3887(2) 0.0394(6) Uani 1 1 d . . .
C6 C 0.7389(4) 0.1256(4) 0.3620(3) 0.0560(7) Uani 1 1 d . . .
H6A H 0.6652 -0.0036 0.3959 0.084 Uiso 1 1 calc R . .
H6B H 0.9239 0.1668 0.4078 0.084 Uiso 1 1 calc R . .
H6C H 0.7073 0.0908 0.2369 0.084 Uiso 1 1 calc R . .
C5 C 0.3559(5) 0.2638(4) 0.1291(3) 0.0607(7) Uani 1 1 d . . .
H5A H 0.5050 0.2851 0.0759 0.091 Uiso 1 1 calc R . .
H5B H 0.2188 0.3216 0.0740 0.091 Uiso 1 1 calc R . .
H5C H 0.2958 0.1064 0.1153 0.091 Uiso 1 1 calc R . .
C4 C 0.1261(5) 0.6459(4) 0.2691(3) 0.0587(7) Uani 1 1 d . . .
H4A H 0.1632 0.6124 0.1538 0.088 Uiso 1 1 calc R . .
H4B H 0.1403 0.8048 0.3126 0.088 Uiso 1 1 calc R . .
H4C H -0.0480 0.5688 0.2652 0.088 Uiso 1 1 calc R . .
loop_
_atom_site_aniso_label
_atom_site_aniso_U_11
_atom_site_aniso_U_22
_atom_site_aniso_U_33
_atom_site_aniso_U_23
_atom_site_aniso_U_13
_atom_site_aniso_U_12
C2 0.0391(10) 0.0416(10) 0.0382(10) 0.0117(8) 0.0061(7) 0.0090(7)
C3 0.0373(10) 0.0369(10) 0.0464(11) 0.0135(8) 0.0096(7) 0.0111(7)
C1 0.0356(10) 0.0399(10) 0.0455(11) 0.0170(8) 0.0049(7) 0.0109(7)
C6 0.0570(13) 0.0476(12) 0.0662(15) 0.0101(10) 0.0157(10) 0.0238(9)
C5 0.0726(15) 0.0657(15) 0.0403(12) 0.0081(10) 0.0050(10) 0.0208(12)
C4 0.0543(13) 0.0668(15) 0.0591(14) 0.0257(11) -0.0015(10) 0.0236(10)
loop_
_atom_type_symbol
_atom_type_description
_atom_type_scat_dispersion_real
_atom_type_scat_dispersion_imag
_atom_type_scat_source
C C 0.0033 0.0016 'International Tables Vol C Tables 4.2.6.8 and 6.1.1.4'
H H 0.0000 0.0000 'International Tables Vol C Tables 4.2.6.8 and 6.1.1.4'
loop_
_geom_angle_atom_site_label_1
_geom_angle_atom_site_label_2
_geom_angle_atom_site_label_3
_geom_angle
_geom_angle_site_symmetry_1
_geom_angle_site_symmetry_3
C3 C2 C1 120.05(17) . .
C3 C2 C5 120.07(17) . .
C1 C2 C5 119.87(17) . .
C2 C3 C6 120.45(18) . .
C1 C3 C2 120.13(17) 2_666 .
C1 C3 C6 119.41(17) 2_666 .
C2 C1 C4 120.48(18) . .
C3 C1 C2 119.81(17) 2_666 .
C3 C1 C4 119.71(17) 2_666 .
C3 C6 H6A 109.5 . .
C3 C6 H6B 109.5 . .
C3 C6 H6C 109.5 . .
H6A C6 H6B 109.5 . .
H6A C6 H6C 109.5 . .
H6B C6 H6C 109.5 . .
C2 C5 H5A 109.5 . .
C2 C5 H5B 109.5 . .
C2 C5 H5C 109.5 . .
H5A C5 H5B 109.5 . .
H5A C5 H5C 109.5 . .
H5B C5 H5C 109.5 . .
C1 C4 H4A 109.5 . .
C1 C4 H4B 109.5 . .
C1 C4 H4C 109.5 . .
H4A C4 H4B 109.5 . .
H4A C4 H4C 109.5 . .
H4B C4 H4C 109.5 . .
loop_
_geom_bond_atom_site_label_1
_geom_bond_atom_site_label_2
_geom_bond_distance
_geom_bond_site_symmetry_2
C2 C3 1.402(3) .
C2 C1 1.405(3) .
C2 C5 1.516(3) .
C3 C1 1.396(3) 2_666
C3 C6 1.515(3) .
C1 C3 1.396(3) 2_666
C1 C4 1.514(3) .
C6 H6A 0.9600 .
C6 H6B 0.9600 .
C6 H6C 0.9600 .
C5 H5A 0.9600 .
C5 H5B 0.9600 .
C5 H5C 0.9600 .
C4 H4A 0.9600 .
C4 H4B 0.9600 .
C4 H4C 0.9600 .
