#------------------------------------------------------------------------------
#$Date: 2017-10-13 09:09:21 +0300 (Fri, 13 Oct 2017) $
#$Revision: 201973 $
#$URL: file:///home/coder/svn-repositories/cod/cif/2/20/06/2200630.cif $
#------------------------------------------------------------------------------
#
# This file is available in the Crystallography Open Database (COD),
# http://www.crystallography.net/. The original data for this entry
# were provided by IUCr Journals, http://journals.iucr.org/.
#
# The file may be used within the scientific community so long as
# proper attribution is given to the journal article from which the
# data were obtained.
#
data_2200630
loop_
_publ_author_name
'Bond, Andrew D.'
'Davies, John E.'
_publ_section_title
;
 Styrene at 120K
;
_journal_issue                   12
_journal_name_full               'Acta Crystallographica Section E'
_journal_page_first              o1191
_journal_page_last               o1193
_journal_paper_doi               10.1107/S1600536801019195
_journal_volume                  57
_journal_year                    2001
_chemical_formula_iupac          'C8 H8'
_chemical_formula_moiety         'C8 H8'
_chemical_formula_sum            'C8 H8'
_chemical_formula_weight         104.14
_chemical_melting_point          242
_chemical_name_common            Styrene
_chemical_name_systematic        Styrene
_space_group_IT_number           60
_symmetry_cell_setting           orthorhombic
_symmetry_space_group_name_Hall  '-P 2n 2ab'
_symmetry_space_group_name_H-M   'P b c n'
_cell_angle_alpha                90.00
_cell_angle_beta                 90.00
_cell_angle_gamma                90.00
_cell_formula_units_Z            8
_cell_length_a                   15.6898(6)
_cell_length_b                   10.5854(4)
_cell_length_c                   7.5745(2)
_cell_measurement_reflns_used    4669
_cell_measurement_temperature    120(2)
_cell_measurement_theta_max      27.48
_cell_measurement_theta_min      1.00
_cell_volume                     1257.99(8)
_computing_cell_refinement       'HKL, SCALEPACK (Otwinowski & Minor, 1997)'
_computing_data_collection       'COLLECT (Nonius, 1998)'
_computing_data_reduction
;
HKL, DENZO (Otwinowski & Minor, 1997) and SCALEPACK
;
_computing_molecular_graphics
'XP (Sheldrick, 1993) and CAMERON (Watkin et al., 1996)'
_computing_publication_material  SHELXL97
_computing_structure_refinement  'SHELXL97 (Sheldrick, 1997)'
_computing_structure_solution    'SIR92 (Altomare et al., 1994)'
_diffrn_ambient_temperature      120(2)
_diffrn_measured_fraction_theta_full .992
_diffrn_measured_fraction_theta_max .992
_diffrn_measurement_device_type  'Nonius KappaCCD'
_diffrn_measurement_method       'Thin-slice \w and \f'
_diffrn_radiation_source         'fine-focus sealed tube'
_diffrn_radiation_type           MoK\a
_diffrn_radiation_wavelength     .7107
_diffrn_reflns_av_R_equivalents  .0203
_diffrn_reflns_av_sigmaI/netI    .0273
_diffrn_reflns_limit_h_max       20
_diffrn_reflns_limit_h_min       -20
_diffrn_reflns_limit_k_max       13
_diffrn_reflns_limit_k_min       -13
_diffrn_reflns_limit_l_max       9
_diffrn_reflns_limit_l_min       -9
_diffrn_reflns_number            2559
_diffrn_reflns_theta_full        27.35
_diffrn_reflns_theta_max         27.35
_diffrn_reflns_theta_min         3.55
_diffrn_standards_number         0
_exptl_absorpt_coefficient_mu    .062
_exptl_absorpt_correction_type   none
_exptl_crystal_colour            colourless
_exptl_crystal_density_diffrn    1.100
_exptl_crystal_density_method    'not measured'
_exptl_crystal_description       cylinder
_exptl_crystal_F_000             448
_exptl_crystal_size_rad          .15
_refine_diff_density_max         .143
_refine_diff_density_min         -.137
_refine_ls_extinction_method     none
_refine_ls_goodness_of_fit_ref   1.060
_refine_ls_hydrogen_treatment    refall
_refine_ls_matrix_type           full
_refine_ls_number_parameters     105
_refine_ls_number_reflns         1411
_refine_ls_number_restraints     0
_refine_ls_restrained_S_all      1.060
_refine_ls_R_factor_all          .0505
_refine_ls_R_factor_gt           .0376
_refine_ls_shift/su_max          <0.001
_refine_ls_shift/su_mean         .000
_refine_ls_structure_factor_coef Fsqd
_refine_ls_weighting_details
'calc w = 1/[\s^2^(Fo^2^)+(0.0488P)^2^+0.1803P] where P = (Fo^2^+2Fc^2^)/3'
_refine_ls_weighting_scheme      calc
_refine_ls_wR_factor_ref         .1004
_reflns_number_gt                1111
_reflns_number_total             1411
_reflns_threshold_expression     I>2\s(I)
_cod_data_source_file            cf6127.cif
_cod_data_source_block           I
_cod_database_code               2200630
_cod_database_fobs_code          2200630
loop_
_symmetry_equiv_pos_as_xyz
'x, y, z'
'-x+1/2, -y+1/2, z+1/2'
'x+1/2, -y+1/2, -z'
'-x, y, -z+1/2'
'-x, -y, -z'
'x-1/2, y-1/2, -z-1/2'
'-x-1/2, y-1/2, z'
'x, -y, z-1/2'
loop_
_atom_site_label
_atom_site_fract_x
_atom_site_fract_y
_atom_site_fract_z
_atom_site_U_iso_or_equiv
_atom_site_adp_type
_atom_site_calc_flag
_atom_site_refinement_flags
_atom_site_occupancy
_atom_site_disorder_assembly
_atom_site_disorder_group
_atom_site_type_symbol
C1 .73539(6) .14843(9) -.06363(12) .0279(2) Uani d . 1 . . C
C2 .67816(7) .24001(10) -.12281(13) .0319(3) Uani d . 1 . . C
H2 .6993(7) .3088(10) -.1979(15) .040(3) Uiso d . 1 . . H
C3 .59281(7) .23632(10) -.07546(14) .0342(3) Uani d . 1 . . C
H3 .5524(8) .3035(11) -.1194(15) .043(3) Uiso d . 1 . . H
C4 .56301(7) .14089(10) .03352(13) .0349(3) Uani d . 1 . . C
H4 .5009(9) .1370(10) .0649(15) .045(3) Uiso d . 1 . . H
C5 .61904(7) .04872(10) .09343(13) .0339(3) Uani d . 1 . . C
H5 .5988(7) -.0204(11) .1713(17) .044(3) Uiso d . 1 . . H
C6 .70412(7) .05179(9) .04508(13) .0306(3) Uani d . 1 . . C
H6 .7441(7) -.0152(12) .0879(14) .038(3) Uiso d . 1 . . H
C7 .82548(7) .15667(10) -.11697(14) .0356(3) Uani d . 1 . . C
H7 .8381(7) .2230(12) -.2019(18) .052(3) Uiso d . 1 . . H
C8 .88888(8) .08554(12) -.06109(17) .0443(3) Uani d . 1 . . C
H8A .8807(9) .0176(15) .0296(19) .058(4) Uiso d . 1 . . H
H8B .9479(9) .0991(12) -.1040(17) .054(4) Uiso d . 1 . . H
loop_
_atom_site_aniso_label
_atom_site_aniso_U_11
_atom_site_aniso_U_22
_atom_site_aniso_U_33
_atom_site_aniso_U_12
_atom_site_aniso_U_13
_atom_site_aniso_U_23
C1 .0310(5) .0302(5) .0226(4) -.0044(4) -.0010(3) -.0032(4)
C2 .0374(6) .0312(5) .0271(5) -.0048(4) -.0003(4) .0028(4)
C3 .0345(6) .0355(6) .0325(5) .0015(4) -.0047(4) -.0037(4)
C4 .0292(6) .0425(6) .0330(5) -.0078(4) .0005(4) -.0070(4)
C5 .0383(6) .0345(6) .0289(5) -.0120(4) .0005(4) .0008(4)
C6 .0351(6) .0297(5) .0270(5) -.0030(4) -.0029(4) .0007(4)
C7 .0345(6) .0394(6) .0329(5) -.0065(5) .0036(4) .0005(4)
C8 .0327(6) .0471(7) .0532(7) -.0019(5) .0029(5) -.0059(6)
loop_
_atom_type_symbol
_atom_type_description
_atom_type_scat_dispersion_real
_atom_type_scat_dispersion_imag
_atom_type_scat_source
C C .0033 .0016 'International Tables Vol C Tables 4.2.6.8 and 6.1.1.4'
H H .0000 .0000 'International Tables Vol C Tables 4.2.6.8 and 6.1.1.4'
loop_
_geom_angle_atom_site_label_1
_geom_angle_atom_site_label_2
_geom_angle_atom_site_label_3
_geom_angle
_geom_angle_publ_flag
C2 C1 C6 118.06(9) no
C2 C1 C7 119.23(9) no
C6 C1 C7 122.71(9) no
C3 C2 C1 121.24(10) no
C3 C2 H2 119.8(6) no
C1 C2 H2 119.0(6) no
C4 C3 C2 120.02(10) no
C4 C3 H3 119.9(7) no
C2 C3 H3 120.1(7) no
C3 C4 C5 119.54(10) no
C3 C4 H4 119.9(7) no
C5 C4 H4 120.5(7) no
C6 C5 C4 120.47(10) no
C6 C5 H5 118.9(7) no
C4 C5 H5 120.6(7) no
C5 C6 C1 120.66(10) no
C5 C6 H6 120.1(7) no
C1 C6 H6 119.2(7) no
C8 C7 C1 127.06(11) no
C8 C7 H7 118.1(7) no
C1 C7 H7 114.8(7) no
C7 C8 H8A 122.2(8) no
C7 C8 H8B 121.2(7) no
H8A C8 H8B 116.6(11) no
loop_
_geom_bond_atom_site_label_1
_geom_bond_atom_site_label_2
_geom_bond_site_symmetry_2
_geom_bond_distance
_geom_bond_publ_flag
C1 C2 . 1.3954(14) no
C1 C6 . 1.4018(14) no
C1 C7 . 1.4727(14) no
C2 C3 . 1.3868(15) no
C2 H2 . .982(12) no
C3 C4 . 1.3858(15) no
C3 H3 . 1.009(12) no
C4 C5 . 1.3895(16) no
C4 H4 . 1.004(14) no
C5 C6 . 1.3845(15) no
C5 H5 . .992(13) no
C6 H6 . 1.000(12) no
C7 C8 . 1.3175(16) no
C7 H7 . .973(14) no
C8 H8A . 1.003(16) no
C8 H8B . .992(14) no
loop_
_geom_torsion_atom_site_label_1
_geom_torsion_atom_site_label_2
_geom_torsion_atom_site_label_3
_geom_torsion_atom_site_label_4
_geom_torsion
_geom_torsion_publ_flag
C6 C1 C2 C3 .21(14) no
C7 C1 C2 C3 -179.77(9) no
C1 C2 C3 C4 .42(15) no
C2 C3 C4 C5 -.54(15) no
C3 C4 C5 C6 .03(15) no
C4 C5 C6 C1 .61(15) no
C2 C1 C6 C5 -.72(14) no
C7 C1 C6 C5 179.26(9) no
C2 C1 C7 C8 173.49(11) no
C6 C1 C7 C8 -6.49(17) no
loop_
_cod_related_entry_id
_cod_related_entry_database
_cod_related_entry_code
1 ChemSpider 7220
