#------------------------------------------------------------------------------
#$Date: 2017-10-13 03:48:21 +0300 (Fri, 13 Oct 2017) $
#$Revision: 201957 $
#$URL: file:///home/coder/svn-repositories/cod/cif/2/01/48/2014842.cif $
#------------------------------------------------------------------------------
#
# This file is available in the Crystallography Open Database (COD),
# http://www.crystallography.net/. The original data for this entry
# were provided by IUCr Journals, http://journals.iucr.org/.
#
# The file may be used within the scientific community so long as
# proper attribution is given to the journal article from which the
# data were obtained.
#
data_2014842
loop_
_publ_author_name
'Douthwaite, Richard E.'
'Taylor, Andrew'
'Whitwood, Adrian C.'
_publ_section_title
;
 A new polymorph and two inclusion compounds of 9,9'-spirobifluorene
;
_journal_issue                   5
_journal_name_full               'Acta Crystallographica Section C'
_journal_page_first              o328
_journal_page_last               o331
_journal_paper_doi               10.1107/S0108270105009479
_journal_volume                  61
_journal_year                    2005
_chemical_formula_iupac          'C25 H16 , C6 H6'
_chemical_formula_moiety         'C25 H16 , C6 H6'
_chemical_formula_sum            'C31 H22'
_chemical_formula_weight         394.49
_chemical_name_systematic
;
9,9'-spirobifluorene--benzene (1/1)
;
_space_group_IT_number           14
_symmetry_cell_setting           monoclinic
_symmetry_space_group_name_Hall  '-P 2yn'
_symmetry_space_group_name_H-M   'P 1 21/n 1'
_atom_sites_solution_hydrogens   geom
_atom_sites_solution_primary     direct
_atom_sites_solution_secondary   difmap
_audit_creation_method           SHELXL97
_cell_angle_alpha                90.00
_cell_angle_beta                 92.8770(10)
_cell_angle_gamma                90.00
_cell_formula_units_Z            4
_cell_length_a                   10.7900(6)
_cell_length_b                   18.4004(10)
_cell_length_c                   10.8403(6)
_cell_measurement_reflns_used    4471
_cell_measurement_temperature    115(2)
_cell_measurement_theta_max      27.38
_cell_measurement_theta_min      2.21
_cell_volume                     2149.5(2)
_computing_cell_refinement       'SAINT-Plus (Bruker, 2000)'
_computing_data_collection       'SMART (Bruker, 2000)'
_computing_data_reduction        SAINT-Plus
_computing_molecular_graphics    'CAMERON (Watkin <i>et al.</i>, 1996)'
_computing_publication_material  'SHELXTL (Bruker, 2001)'
_computing_structure_refinement  'SHELXL97 (Sheldrick, 1997)'
_computing_structure_solution    'SHELXS97 (Sheldrick, 1997)'
_diffrn_ambient_temperature      115(2)
_diffrn_measured_fraction_theta_full 1.000
_diffrn_measured_fraction_theta_max 1.000
_diffrn_measurement_device_type  'Bruker SMART CCD area-detector'
_diffrn_measurement_method       '\f and \w'
_diffrn_radiation_monochromator  graphite
_diffrn_radiation_source         'fine-focus sealed tube'
_diffrn_radiation_type           MoK\a
_diffrn_radiation_wavelength     0.71073
_diffrn_reflns_av_R_equivalents  0.0243
_diffrn_reflns_av_sigmaI/netI    0.0276
_diffrn_reflns_limit_h_max       13
_diffrn_reflns_limit_h_min       -14
_diffrn_reflns_limit_k_max       23
_diffrn_reflns_limit_k_min       -23
_diffrn_reflns_limit_l_max       12
_diffrn_reflns_limit_l_min       -14
_diffrn_reflns_number            14724
_diffrn_reflns_theta_full        27.51
_diffrn_reflns_theta_max         27.51
_diffrn_reflns_theta_min         2.18
_exptl_absorpt_coefficient_mu    0.069
_exptl_absorpt_correction_T_max  0.990
_exptl_absorpt_correction_T_min  0.893
_exptl_absorpt_correction_type   multi-scan
_exptl_absorpt_process_details   '(SADABS; Bruker, 2000)'
_exptl_crystal_colour            colourless
_exptl_crystal_density_diffrn    1.219
_exptl_crystal_density_meas      ?
_exptl_crystal_density_method    'not measured'
_exptl_crystal_description       block
_exptl_crystal_F_000             832
_exptl_crystal_size_max          0.2
_exptl_crystal_size_mid          0.2
_exptl_crystal_size_min          0.2
_refine_diff_density_max         0.303
_refine_diff_density_min         -0.179
_refine_ls_extinction_method     none
_refine_ls_goodness_of_fit_ref   1.016
_refine_ls_hydrogen_treatment    constr
_refine_ls_matrix_type           full
_refine_ls_number_parameters     280
_refine_ls_number_reflns         4921
_refine_ls_number_restraints     0
_refine_ls_restrained_S_all      1.016
_refine_ls_R_factor_all          0.0556
_refine_ls_R_factor_gt           0.0420
_refine_ls_shift/su_max          0.000
_refine_ls_shift/su_mean         0.000
_refine_ls_structure_factor_coef Fsqd
_refine_ls_weighting_details
'calc w = 1/[\s^2^(Fo^2^)+(0.056P)^2^+0.5085P] where P=(Fo^2^+2Fc^2^)/3'
_refine_ls_weighting_scheme      calc
_refine_ls_wR_factor_gt          0.1031
_refine_ls_wR_factor_ref         0.1108
_reflns_number_gt                3949
_reflns_number_total             4921
_reflns_threshold_expression     I>2\s(I)
_cod_data_source_file            gg1249.cif
_cod_data_source_block           I
_cod_depositor_comments
;
The following automatic conversions were performed:
'_symmetry_cell_setting' value 'Monoclinic' changed to 'monoclinic'
according to '/home/saulius/struct/CIF-dictionaries/cif_core.dic'
dictionary named 'cif_core.dic' version 2.4.1 from 2010-06-29.

Automatic conversion script
Id: cif_fix_enum 1527 2010-12-29 10:47:43Z saulius 

The following automatic conversions were performed:

'_symmetry_cell_setting' value 'Monoclinic' changed to 'monoclinic'
according to /home/saulius/struct/CIF-dictionaries/cif_core.dic
dictionary named 'cif_core.dic' version 2.4.1 from 2010-06-29.

Automatic conversion script
Id: cif_fix_values 1715 2011-07-08 13:25:40Z adriana 

The following automatic conversions were performed:

'_exptl_crystal_density_meas' value 'not measured' was changed to '?'
- the value is perceived as not measured.

Automatic conversion script
Id: cif_fix_values 3008 2015-01-20 13:52:24Z robertas 
;
_cod_original_sg_symbol_H-M      'P 21/n'
_cod_database_code               2014842
_cod_database_fobs_code          2014842
loop_
_symmetry_equiv_pos_as_xyz
'x, y, z'
'-x+1/2, y+1/2, -z+1/2'
'-x, -y, -z'
'x-1/2, -y-1/2, z-1/2'
loop_
_atom_site_label
_atom_site_fract_x
_atom_site_fract_y
_atom_site_fract_z
_atom_site_U_iso_or_equiv
_atom_site_adp_type
_atom_site_calc_flag
_atom_site_refinement_flags
_atom_site_occupancy
_atom_site_disorder_assembly
_atom_site_disorder_group
_atom_site_type_symbol
C1 0.50192(10) 0.25828(6) 0.17051(10) 0.0193(2) Uani d . 1 . . C
C2 0.44272(10) 0.31068(6) 0.07547(11) 0.0203(2) Uani d . 1 . . C
C3 0.39191(11) 0.29525(7) -0.04131(11) 0.0241(3) Uani d . 1 . . C
H3 0.3893 0.2467 -0.0713 0.029 Uiso calc R 1 . . H
C4 0.34474(12) 0.35209(7) -0.11397(11) 0.0277(3) Uani d . 1 . . C
H4 0.3100 0.3424 -0.1945 0.033 Uiso calc R 1 . . H
C5 0.34784(12) 0.42300(7) -0.06987(12) 0.0293(3) Uani d . 1 . . C
H5 0.3147 0.4612 -0.1204 0.035 Uiso calc R 1 . . H
C6 0.39881(11) 0.43870(7) 0.04723(12) 0.0253(3) Uani d . 1 . . C
H6 0.4009 0.4873 0.0770 0.030 Uiso calc R 1 . . H
C7 0.44683(10) 0.38217(6) 0.12016(11) 0.0212(2) Uani d . 1 . . C
C8 0.50858(10) 0.38196(6) 0.24407(11) 0.0212(2) Uani d . 1 . . C
C9 0.53906(11) 0.43841(7) 0.32586(11) 0.0258(3) Uani d . 1 . . C
H9 0.5165 0.4871 0.3063 0.031 Uiso calc R 1 . . H
C10 0.60317(12) 0.42177(7) 0.43678(12) 0.0289(3) Uani d . 1 . . C
H10 0.6246 0.4596 0.4935 0.035 Uiso calc R 1 . . H
C11 0.63641(12) 0.35055(7) 0.46591(11) 0.0280(3) Uani d . 1 . . C
H11 0.6809 0.3404 0.5418 0.034 Uiso calc R 1 . . H
C12 0.60502(11) 0.29404(7) 0.38478(11) 0.0242(3) Uani d . 1 . . C
H12 0.6270 0.2453 0.4050 0.029 Uiso calc R 1 . . H
C13 0.54144(10) 0.31016(6) 0.27452(11) 0.0206(2) Uani d . 1 . . C
C14 0.41596(11) 0.19683(6) 0.20736(10) 0.0202(2) Uani d . 1 . . C
C15 0.30392(11) 0.20146(7) 0.26408(11) 0.0244(3) Uani d . 1 . . C
H15 0.2712 0.2473 0.2862 0.029 Uiso calc R 1 . . H
C16 0.24010(12) 0.13748(8) 0.28803(12) 0.0293(3) Uani d . 1 . . C
H16 0.1634 0.1398 0.3272 0.035 Uiso calc R 1 . . H
C17 0.28752(12) 0.07051(7) 0.25527(12) 0.0306(3) Uani d . 1 . . C
H17 0.2422 0.0275 0.2711 0.037 Uiso calc R 1 . . H
C18 0.40041(12) 0.06546(7) 0.19962(12) 0.0278(3) Uani d . 1 . . C
H18 0.4329 0.0195 0.1778 0.033 Uiso calc R 1 . . H
C19 0.46484(11) 0.12908(6) 0.17648(10) 0.0218(2) Uani d . 1 . . C
C20 0.58640(11) 0.14067(6) 0.12370(10) 0.0217(2) Uani d . 1 . . C
C21 0.67396(12) 0.09168(7) 0.08289(12) 0.0280(3) Uani d . 1 . . C
H21 0.6584 0.0409 0.0834 0.034 Uiso calc R 1 . . H
C22 0.78442(12) 0.11883(7) 0.04149(12) 0.0315(3) Uani d . 1 . . C
H22 0.8451 0.0861 0.0137 0.038 Uiso calc R 1 . . H
C23 0.80788(12) 0.19296(7) 0.03999(12) 0.0297(3) Uani d . 1 . . C
H23 0.8845 0.2103 0.0120 0.036 Uiso calc R 1 . . H
C24 0.72001(11) 0.24228(7) 0.07912(11) 0.0245(3) Uani d . 1 . . C
H24 0.7354 0.2931 0.0773 0.029 Uiso calc R 1 . . H
C25 0.60990(11) 0.21544(6) 0.12066(10) 0.0202(2) Uani d . 1 . . C
C26 0.51299(14) 0.10350(8) 0.55764(13) 0.0367(3) Uani d . 1 . . C
H26 0.5384 0.0997 0.4752 0.044 Uiso calc R 1 . . H
C27 0.39970(13) 0.07605(8) 0.58842(13) 0.0343(3) Uani d . 1 . . C
H27 0.3474 0.0529 0.5272 0.041 Uiso calc R 1 . . H
C28 0.36196(12) 0.08211(7) 0.70821(13) 0.0304(3) Uani d . 1 . . C
H28 0.2835 0.0636 0.7289 0.036 Uiso calc R 1 . . H
C29 0.43833(13) 0.11503(7) 0.79758(12) 0.0300(3) Uani d . 1 . . C
H29 0.4128 0.1188 0.8799 0.036 Uiso calc R 1 . . H
C30 0.55203(14) 0.14247(8) 0.76711(13) 0.0355(3) Uani d . 1 . . C
H30 0.6045 0.1654 0.8284 0.043 Uiso calc R 1 . . H
C31 0.58947(13) 0.13661(8) 0.64703(14) 0.0374(3) Uani d . 1 . . C
H31 0.6677 0.1554 0.6262 0.045 Uiso calc R 1 . . H
loop_
_atom_site_aniso_label
_atom_site_aniso_U_11
_atom_site_aniso_U_22
_atom_site_aniso_U_33
_atom_site_aniso_U_12
_atom_site_aniso_U_13
_atom_site_aniso_U_23
C1 0.0181(5) 0.0221(6) 0.0176(5) 0.0008(4) 0.0012(4) -0.0007(4)
C2 0.0166(5) 0.0233(6) 0.0211(6) 0.0013(4) 0.0030(4) 0.0023(4)
C3 0.0236(6) 0.0261(6) 0.0225(6) -0.0004(5) 0.0007(5) -0.0012(5)
C4 0.0261(6) 0.0359(7) 0.0210(6) 0.0005(5) -0.0014(5) 0.0026(5)
C5 0.0280(7) 0.0319(7) 0.0282(7) 0.0056(5) 0.0031(5) 0.0093(5)
C6 0.0252(6) 0.0218(6) 0.0295(6) 0.0025(5) 0.0066(5) 0.0015(5)
C7 0.0172(5) 0.0245(6) 0.0222(6) -0.0003(4) 0.0053(4) -0.0004(4)
C8 0.0175(5) 0.0253(6) 0.0212(6) 0.0000(4) 0.0055(4) -0.0017(4)
C9 0.0251(6) 0.0258(6) 0.0270(6) -0.0013(5) 0.0070(5) -0.0049(5)
C10 0.0267(6) 0.0349(7) 0.0254(6) -0.0056(5) 0.0055(5) -0.0113(5)
C11 0.0231(6) 0.0410(7) 0.0199(6) -0.0019(5) 0.0004(5) -0.0034(5)
C12 0.0202(6) 0.0305(6) 0.0220(6) 0.0010(5) 0.0023(5) -0.0001(5)
C13 0.0166(5) 0.0255(6) 0.0199(6) -0.0009(4) 0.0035(4) -0.0029(4)
C14 0.0207(6) 0.0242(6) 0.0154(5) -0.0011(4) -0.0011(4) 0.0008(4)
C15 0.0226(6) 0.0321(7) 0.0186(6) 0.0024(5) 0.0003(5) -0.0007(5)
C16 0.0227(6) 0.0439(8) 0.0216(6) -0.0037(5) 0.0034(5) 0.0049(5)
C17 0.0314(7) 0.0336(7) 0.0266(7) -0.0092(5) 0.0001(5) 0.0075(5)
C18 0.0315(7) 0.0246(6) 0.0270(6) -0.0013(5) 0.0006(5) 0.0023(5)
C19 0.0229(6) 0.0250(6) 0.0174(5) 0.0006(4) -0.0001(4) 0.0009(4)
C20 0.0242(6) 0.0239(6) 0.0169(5) 0.0018(5) 0.0010(4) 0.0003(4)
C21 0.0334(7) 0.0250(6) 0.0260(6) 0.0059(5) 0.0049(5) -0.0011(5)
C22 0.0310(7) 0.0365(7) 0.0275(7) 0.0127(5) 0.0087(5) 0.0003(5)
C23 0.0246(6) 0.0401(8) 0.0252(6) 0.0032(5) 0.0078(5) 0.0053(5)
C24 0.0245(6) 0.0281(6) 0.0211(6) 0.0005(5) 0.0029(5) 0.0032(5)
C25 0.0212(6) 0.0241(6) 0.0152(5) 0.0032(4) 0.0006(4) 0.0001(4)
C26 0.0441(8) 0.0401(8) 0.0267(7) -0.0033(6) 0.0089(6) -0.0018(6)
C27 0.0375(8) 0.0351(7) 0.0296(7) -0.0049(6) -0.0056(6) -0.0006(5)
C28 0.0239(6) 0.0301(7) 0.0372(7) -0.0003(5) 0.0033(5) 0.0016(5)
C29 0.0371(7) 0.0259(6) 0.0276(7) -0.0006(5) 0.0069(5) -0.0026(5)
C30 0.0376(8) 0.0358(7) 0.0327(7) -0.0101(6) -0.0012(6) -0.0042(6)
C31 0.0301(7) 0.0427(8) 0.0402(8) -0.0092(6) 0.0093(6) -0.0013(6)
loop_
_atom_type_symbol
_atom_type_description
_atom_type_scat_dispersion_real
_atom_type_scat_dispersion_imag
_atom_type_scat_source
C C 0.0033 0.0016 'International Tables Vol C Tables 4.2.6.8 and 6.1.1.4'
H H 0.0000 0.0000 'International Tables Vol C Tables 4.2.6.8 and 6.1.1.4'
loop_
_geom_angle_atom_site_label_1
_geom_angle_atom_site_label_2
_geom_angle_atom_site_label_3
_geom_angle
C13 C1 C2 101.29(9)
C13 C1 C25 113.29(9)
C2 C1 C25 112.81(9)
C13 C1 C14 114.94(9)
C2 C1 C14 113.87(9)
C25 C1 C14 101.21(9)
C3 C2 C7 120.87(11)
C3 C2 C1 128.36(11)
C7 C2 C1 110.76(10)
C2 C3 C4 118.75(11)
C2 C3 H3 120.6
C4 C3 H3 120.6
C5 C4 C3 120.65(12)
C5 C4 H4 119.7
C3 C4 H4 119.7
C6 C5 C4 120.77(12)
C6 C5 H5 119.6
C4 C5 H5 119.6
C5 C6 C7 118.90(12)
C5 C6 H6 120.6
C7 C6 H6 120.6
C6 C7 C2 120.07(11)
C6 C7 C8 131.34(11)
C2 C7 C8 108.57(10)
C9 C8 C13 120.21(11)
C9 C8 C7 131.39(11)
C13 C8 C7 108.38(10)
C10 C9 C8 118.48(12)
C10 C9 H9 120.8
C8 C9 H9 120.8
C11 C10 C9 121.00(11)
C11 C10 H10 119.5
C9 C10 H10 119.5
C10 C11 C12 120.56(12)
C10 C11 H11 119.7
C12 C11 H11 119.7
C13 C12 C11 118.75(12)
C13 C12 H12 120.6
C11 C12 H12 120.6
C12 C13 C8 121.00(11)
C12 C13 C1 127.98(11)
C8 C13 C1 110.99(10)
C15 C14 C19 120.52(11)
C15 C14 C1 128.67(11)
C19 C14 C1 110.81(10)
C14 C15 C16 118.72(11)
C14 C15 H15 120.6
C16 C15 H15 120.6
C17 C16 C15 120.67(12)
C17 C16 H16 119.7
C15 C16 H16 119.7
C16 C17 C18 120.89(12)
C16 C17 H17 119.6
C18 C17 H17 119.6
C17 C18 C19 118.62(12)
C17 C18 H18 120.7
C19 C18 H18 120.7
C18 C19 C14 120.56(11)
C18 C19 C20 130.92(11)
C14 C19 C20 108.50(10)
C21 C20 C25 120.12(11)
C21 C20 C19 131.36(11)
C25 C20 C19 108.51(10)
C22 C21 C20 118.47(12)
C22 C21 H21 120.8
C20 C21 H21 120.8
C23 C22 C21 121.19(12)
C23 C22 H22 119.4
C21 C22 H22 119.4
C22 C23 C24 120.61(12)
C22 C23 H23 119.7
C24 C23 H23 119.7
C25 C24 C23 118.38(12)
C25 C24 H24 120.8
C23 C24 H24 120.8
C24 C25 C20 121.22(11)
C24 C25 C1 127.88(11)
C20 C25 C1 110.89(10)
C27 C26 C31 119.80(13)
C27 C26 H26 120.1
C31 C26 H26 120.1
C26 C27 C28 120.23(13)
C26 C27 H27 119.9
C28 C27 H27 119.9
C29 C28 C27 120.02(12)
C29 C28 H28 120.0
C27 C28 H28 120.0
C28 C29 C30 119.90(13)
C28 C29 H29 120.0
C30 C29 H29 120.0
C29 C30 C31 120.00(13)
C29 C30 H30 120.0
C31 C30 H30 120.0
C26 C31 C30 120.04(13)
C26 C31 H31 120.0
C30 C31 H31 120.0
loop_
_geom_bond_atom_site_label_1
_geom_bond_atom_site_label_2
_geom_bond_site_symmetry_2
_geom_bond_distance
_geom_bond_publ_flag
C1 C13 . 1.5220(15) ?
C1 C2 . 1.5275(15) ?
C1 C25 . 1.5277(15) ?
C1 C14 . 1.5281(15) ?
C2 C3 . 1.3836(16) ?
C2 C7 . 1.4016(16) ?
C3 C4 . 1.3904(17) ?
C3 H3 . 0.9500 ?
C4 C5 . 1.3893(19) ?
C4 H4 . 0.9500 ?
C5 C6 . 1.3883(18) ?
C5 H5 . 0.9500 ?
C6 C7 . 1.3909(17) ?
C6 H6 . 0.9500 ?
C7 C8 . 1.4691(17) ?
C8 C9 . 1.3944(17) ?
C8 C13 . 1.4029(16) ?
C9 C10 . 1.3909(18) ?
C9 H9 . 0.9500 ?
C10 C11 . 1.3909(19) ?
C10 H10 . 0.9500 ?
C11 C12 . 1.3926(17) ?
C11 H11 . 0.9500 ?
C12 C13 . 1.3802(16) ?
C12 H12 . 0.9500 ?
C14 C15 . 1.3862(16) ?
C14 C19 . 1.4008(16) ?
C15 C16 . 1.3948(18) ?
C15 H15 . 0.9500 ?
C16 C17 . 1.3872(19) ?
C16 H16 . 0.9500 ?
C17 C18 . 1.3893(18) ?
C17 H17 . 0.9500 ?
C18 C19 . 1.3907(17) ?
C18 H18 . 0.9500 ?
C19 C20 . 1.4727(16) ?
C20 C21 . 1.3938(17) ?
C20 C25 . 1.3997(16) ?
C21 C22 . 1.3875(18) ?
C21 H21 . 0.9500 ?
C22 C23 . 1.3874(19) ?
C22 H22 . 0.9500 ?
C23 C24 . 1.3939(17) ?
C23 H23 . 0.9500 ?
C24 C25 . 1.3826(16) ?
C24 H24 . 0.9500 ?
C26 C27 . 1.379(2) ?
C26 C31 . 1.382(2) ?
C26 H26 . 0.9500 ?
C27 C28 . 1.3847(19) ?
C27 H27 . 0.9500 ?
C28 C29 . 1.3800(19) ?
C28 H28 . 0.9500 ?
C29 C30 . 1.3820(19) ?
C29 H29 . 0.9500 ?
C30 C31 . 1.386(2) ?
C30 H30 . 0.9500 ?
C31 H31 . 0.9500 ?
loop_
_geom_hbond_atom_site_label_D
_geom_hbond_atom_site_label_H
_geom_hbond_atom_site_label_A
_geom_hbond_site_symmetry_A
_geom_hbond_distance_DH
_geom_hbond_distance_HA
_geom_hbond_distance_DA
_geom_hbond_angle_DHA
_geom_hbond_publ_flag
C4 H4 Cg1 4_565 0.95 2.67 3.61 172 y
C11 H11 C16 4_666 0.95 2.74 3.6196(18) 154 y
loop_
_geom_torsion_atom_site_label_1
_geom_torsion_atom_site_label_2
_geom_torsion_atom_site_label_3
_geom_torsion_atom_site_label_4
_geom_torsion
C13 C1 C2 C3 178.21(11)
C25 C1 C2 C3 56.79(15)
C14 C1 C2 C3 -57.84(15)
C13 C1 C2 C7 -0.64(11)
C25 C1 C2 C7 -122.06(10)
C14 C1 C2 C7 123.31(10)
C7 C2 C3 C4 -0.01(17)
C1 C2 C3 C4 -178.76(11)
C2 C3 C4 C5 -0.40(18)
C3 C4 C5 C6 0.45(19)
C4 C5 C6 C7 -0.07(19)
C5 C6 C7 C2 -0.33(17)
C5 C6 C7 C8 178.11(12)
C3 C2 C7 C6 0.38(17)
C1 C2 C7 C6 179.33(10)
C3 C2 C7 C8 -178.39(10)
C1 C2 C7 C8 0.56(12)
C6 C7 C8 C9 -0.8(2)
C2 C7 C8 C9 177.82(12)
C6 C7 C8 C13 -178.80(12)
C2 C7 C8 C13 -0.23(13)
C13 C8 C9 C10 0.54(17)
C7 C8 C9 C10 -177.31(12)
C8 C9 C10 C11 0.02(18)
C9 C10 C11 C12 -0.61(19)
C10 C11 C12 C13 0.63(18)
C11 C12 C13 C8 -0.06(17)
C11 C12 C13 C1 177.54(11)
C9 C8 C13 C12 -0.52(17)
C7 C8 C13 C12 177.78(10)
C9 C8 C13 C1 -178.50(10)
C7 C8 C13 C1 -0.20(13)
C2 C1 C13 C12 -177.30(11)
C25 C1 C13 C12 -56.22(15)
C14 C1 C13 C12 59.48(15)
C2 C1 C13 C8 0.50(12)
C25 C1 C13 C8 121.59(11)
C14 C1 C13 C8 -122.72(11)
C13 C1 C14 C15 54.37(16)
C2 C1 C14 C15 -61.85(15)
C25 C1 C14 C15 176.83(11)
C13 C1 C14 C19 -125.38(11)
C2 C1 C14 C19 118.41(11)
C25 C1 C14 C19 -2.92(12)
C19 C14 C15 C16 -0.95(17)
C1 C14 C15 C16 179.32(11)
C14 C15 C16 C17 -0.27(18)
C15 C16 C17 C18 1.0(2)
C16 C17 C18 C19 -0.46(19)
C17 C18 C19 C14 -0.77(18)
C17 C18 C19 C20 177.58(12)
C15 C14 C19 C18 1.49(17)
C1 C14 C19 C18 -178.74(10)
C15 C14 C19 C20 -177.20(10)
C1 C14 C19 C20 2.57(13)
C18 C19 C20 C21 -1.1(2)
C14 C19 C20 C21 177.43(12)
C18 C19 C20 C25 -179.55(12)
C14 C19 C20 C25 -1.05(13)
C25 C20 C21 C22 0.95(18)
C19 C20 C21 C22 -177.37(12)
C20 C21 C22 C23 -0.2(2)
C21 C22 C23 C24 -0.6(2)
C22 C23 C24 C25 0.75(19)
C23 C24 C25 C20 0.00(18)
C23 C24 C25 C1 178.47(11)
C21 C20 C25 C24 -0.86(18)
C19 C20 C25 C24 177.82(10)
C21 C20 C25 C1 -179.57(10)
C19 C20 C25 C1 -0.89(13)
C13 C1 C25 C24 -52.75(16)
C2 C1 C25 C24 61.59(15)
C14 C1 C25 C24 -176.34(11)
C13 C1 C25 C20 125.85(11)
C2 C1 C25 C20 -119.81(11)
C14 C1 C25 C20 2.26(12)
C31 C26 C27 C28 0.6(2)
C26 C27 C28 C29 -0.7(2)
C27 C28 C29 C30 0.5(2)
C28 C29 C30 C31 -0.3(2)
C27 C26 C31 C30 -0.3(2)
C29 C30 C31 C26 0.2(2)
loop_
_cod_related_entry_id
_cod_related_entry_database
_cod_related_entry_code
1 ChemSpider 21133869
