#------------------------------------------------------------------------------
#$Date: 2016-03-22 10:27:54 +0200 (Tue, 22 Mar 2016) $
#$Revision: 178871 $
#$URL: svn://www.crystallography.net/cod/cif/4/11/00/4110045.cif $
#------------------------------------------------------------------------------
#
# This file is available in the Crystallography Open Database (COD),
# http://www.crystallography.net/
#
# All data on this site have been placed in the public domain by the
# contributors.
#
data_4110045
loop_
_publ_author_name
'Kamil Dziubek'
'Marcin Podsiad\/lo'
'Andrzej Katrusiak'
_publ_contact_author_fax         +48(61)8658008
_publ_contact_author_phone       +48(61)8291443
_publ_section_title
;
 Nearly Isostructural Polymorphs of Ethynylbenzene: Resolution of
 \\tbCH...\p(arene) and Cooperative \\tbCH...\p(C\\tbC) Interactions by
 Pressure Freezing
;
_journal_name_full               'Journal of the American Chemical Society'
_journal_page_first              12620
_journal_page_last               12621
_journal_paper_doi               10.1021/ja074885r
_journal_volume                  129
_journal_year                    2007
_chemical_formula_moiety         'C8 H6'
_chemical_formula_sum            'C8 H6'
_chemical_formula_weight         102.13
_chemical_melting_point          228
_chemical_name_common            'phenylacetylene, polymorph beta at 0.51 GPa'
_chemical_name_systematic
; 
Ethynylbenzene, polymorph beta at 0.51 GPa
;
_space_group_IT_number           2
_symmetry_cell_setting           triclinic
_symmetry_space_group_name_Hall  '-P 1'
_symmetry_space_group_name_H-M   'P -1'
_atom_sites_solution_hydrogens   geom
_atom_sites_solution_primary     direct
_atom_sites_solution_secondary   difmap
_audit_creation_method           SHELXL-97
_cell_angle_alpha                71.18(3)
_cell_angle_beta                 82.34(3)
_cell_angle_gamma                78.48(3)
_cell_formula_units_Z            6
_cell_length_a                   5.7459(11)
_cell_length_b                   9.1349(18)
_cell_length_c                   18.135(4)
_cell_measurement_reflns_used    2294
_cell_measurement_temperature    295(2)
_cell_measurement_theta_max      28.49
_cell_measurement_theta_min      2.32
_cell_volume                     880.4(4)
_computing_cell_refinement       'CrysAlis (Oxford Diffraction, 2004)'
_computing_data_collection       'CrysAlis (Oxford Diffraction, 2004)'
_computing_data_reduction        'CrysAlis (Oxford Diffraction, 2004)'
_computing_molecular_graphics    'XP (Siemens, 1990)'
_computing_publication_material  'SHELXL-97 (Sheldrick, 1997)'
_computing_structure_refinement  'SHELXL-97 (Sheldrick, 1997)'
_computing_structure_solution    'SHELXS-97 (Sheldrick, 1990)'
_diffrn_ambient_temperature      295(2)
_diffrn_measured_fraction_theta_full 0.135
_diffrn_measured_fraction_theta_max 0.135
_diffrn_measurement_device_type  'Kuma KM4CCD \k geometry'
_diffrn_measurement_method       '\w scans'
_diffrn_radiation_monochromator  graphite
_diffrn_radiation_source         'fine-focus sealed tube'
_diffrn_radiation_type           MoK\a
_diffrn_radiation_wavelength     0.71073
_diffrn_reflns_av_R_equivalents  0.0410
_diffrn_reflns_av_sigmaI/netI    0.0271
_diffrn_reflns_limit_h_max       7
_diffrn_reflns_limit_h_min       -7
_diffrn_reflns_limit_k_max       12
_diffrn_reflns_limit_k_min       -12
_diffrn_reflns_limit_l_max       8
_diffrn_reflns_limit_l_min       -8
_diffrn_reflns_number            3941
_diffrn_reflns_theta_full        28.49
_diffrn_reflns_theta_max         28.49
_diffrn_reflns_theta_min         2.32
_exptl_absorpt_coefficient_mu    0.065
_exptl_absorpt_correction_T_max  0.95
_exptl_absorpt_correction_T_min  0.66
_exptl_absorpt_correction_type   analytical
_exptl_absorpt_process_details
;
Katrusiak, A. (2003). REDSHABS - Program for correcting
reflections intensities for DAC absorption, gasket shadowing
and sample crystal absorption. Adam Mickiewicz University, Pozna\'n.
Katrusiak, A. (2004). Z. Kristallogr. 219, 461-467
;
_exptl_crystal_colour            colourless
_exptl_crystal_density_diffrn    1.156
_exptl_crystal_description       cylinder
_exptl_crystal_F_000             324
_exptl_crystal_size_max          0.49
_exptl_crystal_size_mid          0.46
_exptl_crystal_size_min          0.20
_refine_diff_density_max         0.060
_refine_diff_density_min         -0.075
_refine_diff_density_rms         0.019
_refine_ls_extinction_method     none
_refine_ls_goodness_of_fit_ref   1.117
_refine_ls_hydrogen_treatment    constr
_refine_ls_matrix_type           full
_refine_ls_number_parameters     97
_refine_ls_number_reflns         605
_refine_ls_number_restraints     0
_refine_ls_restrained_S_all      1.117
_refine_ls_R_factor_all          0.0779
_refine_ls_R_factor_gt           0.0496
_refine_ls_shift/su_max          0.000
_refine_ls_shift/su_mean         0.000
_refine_ls_structure_factor_coef Fsqd
_refine_ls_weighting_details
'calc w=1/[\s^2^(Fo^2^)+(0.0876P)^2^+0.0000P] where P=(Fo^2^+2Fc^2^)/3'
_refine_ls_weighting_scheme      calc
_refine_ls_wR_factor_gt          0.1260
_refine_ls_wR_factor_ref         0.1436
_reflns_number_gt                431
_reflns_number_total             605
_reflns_threshold_expression     >4sigma(I)
_cod_data_source_file            ja074885rsi20070703_084807.cif
_cod_data_source_block           3pha
_cod_original_cell_volume        880.4(3)
_cod_database_code               4110045
loop_
_symmetry_equiv_pos_as_xyz
'x, y, z'
'-x, -y, -z'
loop_
_atom_site_label
_atom_site_type_symbol
_atom_site_fract_x
_atom_site_fract_y
_atom_site_fract_z
_atom_site_U_iso_or_equiv
_atom_site_adp_type
_atom_site_occupancy
_atom_site_symmetry_multiplicity
_atom_site_calc_flag
_atom_site_refinement_flags
C1 C 0.0250(13) 0.3580(14) -0.0763(18) 0.062(3) Uiso 1 1 d .
C2 C -0.0032(11) 0.4030(12) -0.1483(16) 0.047(2) Uiso 1 1 d .
H2 H -0.1217 0.3684 -0.1653 0.057 Uiso 1 1 calc R
C3 C 0.1389(8) 0.5056(9) -0.2057(12) 0.0679(15) Uiso 1 1 d .
H3 H 0.1136 0.5390 -0.2586 0.081 Uiso 1 1 calc R
C4 C 0.3129(11) 0.5506(11) -0.1776(15) 0.0544(19) Uiso 1 1 d .
H4 H 0.4087 0.6172 -0.2124 0.065 Uiso 1 1 calc R
C5 C 0.3515(11) 0.4998(11) -0.0983(15) 0.0610(19) Uiso 1 1 d .
H5 H 0.4710 0.5292 -0.0790 0.073 Uiso 1 1 calc R
C6 C 0.2025(8) 0.4045(9) -0.0513(12) 0.0667(15) Uiso 1 1 d .
H6 H 0.2235 0.3683 0.0019 0.080 Uiso 1 1 calc R
C7 C -0.1231(9) 0.2613(9) -0.0276(12) 0.0663(14) Uiso 1 1 d .
C8 C -0.2525(9) 0.1740(10) 0.0254(13) 0.0845(17) Uiso 1 1 d .
H8 H -0.3457 0.1111 0.0637 0.101 Uiso 1 1 calc R
C11 C 0.5165(7) 0.0328(8) 0.2434(11) 0.0546(12) Uiso 1 1 d .
C12 C 0.3031(7) 0.1302(8) 0.2311(11) 0.0586(13) Uiso 1 1 d .
H12 H 0.2506 0.2071 0.2558 0.070 Uiso 1 1 calc R
C13 C 0.1739(7) 0.1065(8) 0.1805(10) 0.0572(12) Uiso 1 1 d .
H13 H 0.0302 0.1738 0.1685 0.069 Uiso 1 1 calc R
C14 C 0.2401(7) -0.0133(8) 0.1439(10) 0.0642(14) Uiso 1 1 d .
H14 H 0.1457 -0.0242 0.1088 0.077 Uiso 1 1 calc R
C15 C 0.4555(7) -0.1140(8) 0.1638(10) 0.0646(14) Uiso 1 1 d .
H15 H 0.5100 -0.1930 0.1407 0.078 Uiso 1 1 calc R
C16 C 0.5870(7) -0.0961(9) 0.2177(11) 0.0588(12) Uiso 1 1 d .
H16 H 0.7200 -0.1695 0.2362 0.071 Uiso 1 1 calc R
C17 C 0.6555(8) 0.0506(8) 0.3031(11) 0.0593(13) Uiso 1 1 d .
C18 C 0.7763(9) 0.0677(8) 0.3427(12) 0.0775(16) Uiso 1 1 d .
H18 H 0.8759 0.0818 0.3754 0.093 Uiso 1 1 calc R
C21 C 0.0691(8) 0.6400(10) -0.4392(13) 0.0681(15) Uiso 1 1 d .
C22 C 0.1592(9) 0.4872(9) -0.4307(12) 0.0793(16) Uiso 1 1 d .
H22 H 0.3019 0.4553 -0.4564 0.095 Uiso 1 1 calc R
C23 C 0.0184(9) 0.3796(11) -0.3794(14) 0.0845(16) Uiso 1 1 d .
H23 H 0.0790 0.2731 -0.3683 0.101 Uiso 1 1 calc R
C24 C -0.2160(10) 0.4250(11) -0.3427(15) 0.108(2) Uiso 1 1 d .
H24 H -0.3010 0.3523 -0.3071 0.130 Uiso 1 1 calc R
C25 C -0.3016(10) 0.5854(10) -0.3653(12) 0.0914(18) Uiso 1 1 d .
H25 H -0.4571 0.6218 -0.3496 0.110 Uiso 1 1 calc R
C26 C -0.1631(8) 0.6887(9) -0.4095(12) 0.0712(15) Uiso 1 1 d .
H26 H -0.2220 0.7955 -0.4209 0.085 Uiso 1 1 calc R
C27 C 0.2064(9) 0.7545(10) -0.4896(12) 0.0775(17) Uiso 1 1 d .
C28 C 0.3220(11) 0.8381(12) -0.5232(14) 0.0956(19) Uiso 1 1 d .
H28 H 0.4204 0.9094 -0.5519 0.115 Uiso 1 1 calc R
loop_
_atom_type_symbol
_atom_type_description
_atom_type_scat_dispersion_real
_atom_type_scat_dispersion_imag
_atom_type_scat_source
C C 0.0033 0.0016 'International Tables Vol C Tables 4.2.6.8 and 6.1.1.4'
H H 0.0000 0.0000 'International Tables Vol C Tables 4.2.6.8 and 6.1.1.4'
loop_
_geom_angle_atom_site_label_1
_geom_angle_atom_site_label_2
_geom_angle_atom_site_label_3
_geom_angle
C2 C1 C6 119(2)
C2 C1 C7 117.6(10)
C6 C1 C7 124(2)
C1 C2 C3 123.3(9)
C1 C2 H2 118.3
C3 C2 H2 118.3
C4 C3 C2 115.9(17)
C4 C3 H3 122.1
C2 C3 H3 122.1
C3 C4 C5 122.0(15)
C3 C4 H4 119.0
C5 C4 H4 119.0
C6 C5 C4 115.3(9)
C6 C5 H5 122.3
C4 C5 H5 122.3
C5 C6 C1 125(2)
C5 C6 H6 117.6
C1 C6 H6 117.6
C8 C7 C1 172.6(16)
C7 C8 H8 180.0
C12 C11 C16 124.8(9)
C12 C11 C17 115.5(8)
C16 C11 C17 118.3(8)
C13 C12 C11 114.7(8)
C13 C12 H12 122.6
C11 C12 H12 122.6
C12 C13 C14 125.0(6)
C12 C13 H13 117.5
C14 C13 H13 117.5
C15 C14 C13 116.2(9)
C15 C14 H14 121.9
C13 C14 H14 121.9
C16 C15 C14 120.0(7)
C16 C15 H15 120.0
C14 C15 H15 120.0
C15 C16 C11 118.3(8)
C15 C16 H16 120.9
C11 C16 H16 120.9
C18 C17 C11 173.6(14)
C17 C18 H18 180.0
C22 C21 C26 122.3(10)
C22 C21 C27 117.1(9)
C26 C21 C27 120.1(7)
C21 C22 C23 114.6(10)
C21 C22 H22 122.7
C23 C22 H22 122.7
C22 C23 C24 124.4(7)
C22 C23 H23 117.8
C24 C23 H23 117.8
C25 C24 C23 114.7(14)
C25 C24 H24 122.6
C23 C24 H24 122.6
C26 C25 C24 121.1(8)
C26 C25 H25 119.5
C24 C25 H25 119.5
C25 C26 C21 122.0(7)
C25 C26 H26 119.0
C21 C26 H26 119.0
C28 C27 C21 174.4(16)
C27 C28 H28 180.0
loop_
_geom_bond_atom_site_label_1
_geom_bond_atom_site_label_2
_geom_bond_distance
C1 C2 1.26(5)
C1 C6 1.358(14)
C1 C7 1.37(2)
C2 C3 1.44(3)
C2 H2 0.9300
C3 C4 1.364(12)
C3 H3 0.9300
C4 C5 1.40(4)
C4 H4 0.9300
C5 C6 1.357(18)
C5 H5 0.9300
C6 H6 0.9300
C7 C8 1.290(19)
C8 H8 0.9300
C11 C12 1.362(7)
C11 C16 1.371(10)
C11 C17 1.495(17)
C12 C13 1.348(15)
C12 H12 0.9300
C13 C14 1.420(11)
C13 H13 0.9300
C14 C15 1.400(8)
C14 H14 0.9300
C15 C16 1.380(16)
C15 H15 0.9300
C16 H16 0.9300
C17 C18 1.127(15)
C18 H18 0.9300
C21 C22 1.354(8)
C21 C26 1.412(12)
C21 C27 1.439(17)
C22 C23 1.419(17)
C22 H22 0.9300
C23 C24 1.465(16)
C23 H23 0.9300
C24 C25 1.391(12)
C24 H24 0.9300
C25 C26 1.345(15)
C25 H25 0.9300
C26 H26 0.9300
C27 C28 1.091(17)
C28 H28 0.9300
loop_
_geom_torsion_atom_site_label_1
_geom_torsion_atom_site_label_2
_geom_torsion_atom_site_label_3
_geom_torsion_atom_site_label_4
_geom_torsion
C6 C1 C2 C3 -2.0(11)
C7 C1 C2 C3 179.6(4)
C1 C2 C3 C4 1.1(9)
C2 C3 C4 C5 0.3(8)
C3 C4 C5 C6 -0.7(9)
C4 C5 C6 C1 -0.1(8)
C2 C1 C6 C5 1.5(9)
C7 C1 C6 C5 179.8(5)
C2 C1 C7 C8 -167(4)
C6 C1 C7 C8 15(4)
C16 C11 C12 C13 -10(2)
C17 C11 C12 C13 -176.3(12)
C11 C12 C13 C14 3.0(19)
C12 C13 C14 C15 0.8(19)
C13 C14 C15 C16 1.6(18)
C14 C15 C16 C11 -7.8(19)
C12 C11 C16 C15 13(2)
C17 C11 C16 C15 178.7(12)
C12 C11 C17 C18 -118(5)
C16 C11 C17 C18 74(5)
C26 C21 C22 C23 -10(2)
C27 C21 C22 C23 179.0(13)
C21 C22 C23 C24 5(2)
C22 C23 C24 C25 4(2)
C23 C24 C25 C26 -8(2)
C24 C25 C26 C21 4(2)
C22 C21 C26 C25 6(3)
C27 C21 C26 C25 176.8(14)
C22 C21 C27 C28 -76(10)
C26 C21 C27 C28 112(9)
