#------------------------------------------------------------------------------
#$Date: 2016-03-22 10:27:54 +0200 (Tue, 22 Mar 2016) $
#$Revision: 178871 $
#$URL: svn://www.crystallography.net/cod/cif/4/11/00/4110044.cif $
#------------------------------------------------------------------------------
#
# This file is available in the Crystallography Open Database (COD),
# http://www.crystallography.net/
#
# All data on this site have been placed in the public domain by the
# contributors.
#
data_4110044
loop_
_publ_author_name
'Kamil Dziubek'
'Marcin Podsiad\/lo'
'Andrzej Katrusiak'
_publ_contact_author_fax         +48(61)8658008
_publ_contact_author_phone       +48(61)8291443
_publ_section_title
;
 Nearly Isostructural Polymorphs of Ethynylbenzene: Resolution of
 \\tbCH...\p(arene) and Cooperative \\tbCH...\p(C\\tbC) Interactions by
 Pressure Freezing
;
_journal_name_full               'Journal of the American Chemical Society'
_journal_page_first              12620
_journal_page_last               12621
_journal_paper_doi               10.1021/ja074885r
_journal_volume                  129
_journal_year                    2007
_chemical_formula_moiety         'C8 H6'
_chemical_formula_sum            'C8 H6'
_chemical_formula_weight         102.13
_chemical_melting_point          228
_chemical_name_common            'phenylacetylene, polymorph beta at 0.43 GPa'
_chemical_name_systematic
; 
Ethynylbenzene, polymorph beta at 0.43 GPa
;
_space_group_IT_number           2
_symmetry_cell_setting           triclinic
_symmetry_space_group_name_Hall  '-P 1'
_symmetry_space_group_name_H-M   'P -1'
_atom_sites_solution_hydrogens   geom
_atom_sites_solution_primary     direct
_atom_sites_solution_secondary   difmap
_audit_creation_method           SHELXL-97
_cell_angle_alpha                71.08(3)
_cell_angle_beta                 82.33(3)
_cell_angle_gamma                78.47(3)
_cell_formula_units_Z            6
_cell_length_a                   5.8037(12)
_cell_length_b                   9.1671(18)
_cell_length_c                   18.163(4)
_cell_measurement_reflns_used    2037
_cell_measurement_temperature    295(2)
_cell_measurement_theta_max      28.31
_cell_measurement_theta_min      2.31
_cell_volume                     893.2(4)
_computing_cell_refinement       'CrysAlis (Oxford Diffraction, 2004)'
_computing_data_collection       'CrysAlis (Oxford Diffraction, 2004)'
_computing_data_reduction        'CrysAlis (Oxford Diffraction, 2004)'
_computing_molecular_graphics    'XP (Siemens, 1990)'
_computing_publication_material  'SHELXL-97 (Sheldrick, 1997)'
_computing_structure_refinement  'SHELXL-97 (Sheldrick, 1997)'
_computing_structure_solution    'SHELXS-97 (Sheldrick, 1990)'
_diffrn_ambient_temperature      295(2)
_diffrn_measured_fraction_theta_full 0.138
_diffrn_measured_fraction_theta_max 0.138
_diffrn_measurement_device_type  'Kuma KM4CCD \k geometry'
_diffrn_measurement_method       '\w scans'
_diffrn_radiation_monochromator  graphite
_diffrn_radiation_source         'fine-focus sealed tube'
_diffrn_radiation_type           MoK\a
_diffrn_radiation_wavelength     0.71073
_diffrn_reflns_av_R_equivalents  0.0421
_diffrn_reflns_av_sigmaI/netI    0.0336
_diffrn_reflns_limit_h_max       7
_diffrn_reflns_limit_h_min       -7
_diffrn_reflns_limit_k_max       12
_diffrn_reflns_limit_k_min       -12
_diffrn_reflns_limit_l_max       8
_diffrn_reflns_limit_l_min       -8
_diffrn_reflns_number            3978
_diffrn_reflns_theta_full        28.31
_diffrn_reflns_theta_max         28.31
_diffrn_reflns_theta_min         2.31
_exptl_absorpt_coefficient_mu    0.064
_exptl_absorpt_correction_T_max  0.96
_exptl_absorpt_correction_T_min  0.66
_exptl_absorpt_correction_type   analytical
_exptl_absorpt_process_details
;
Katrusiak, A. (2003). REDSHABS - Program for correcting
reflections intensities for DAC absorption, gasket shadowing
and sample crystal absorption. Adam Mickiewicz University, Pozna\'n.
Katrusiak, A. (2004). Z. Kristallogr. 219, 461-467
;
_exptl_crystal_colour            colourless
_exptl_crystal_density_diffrn    1.139
_exptl_crystal_description       cylinder
_exptl_crystal_F_000             324
_exptl_crystal_size_max          0.50
_exptl_crystal_size_mid          0.47
_exptl_crystal_size_min          0.23
_refine_diff_density_max         0.042
_refine_diff_density_min         -0.057
_refine_diff_density_rms         0.012
_refine_ls_extinction_coef       0.055(9)
_refine_ls_extinction_expression Fc^*^=kFc[1+0.001xFc^2^\l^3^/sin(2\q)]^-1/4^
_refine_ls_extinction_method     SHELXL
_refine_ls_goodness_of_fit_ref   1.094
_refine_ls_hydrogen_treatment    constr
_refine_ls_matrix_type           full
_refine_ls_number_parameters     98
_refine_ls_number_reflns         613
_refine_ls_number_restraints     0
_refine_ls_restrained_S_all      1.094
_refine_ls_R_factor_all          0.0654
_refine_ls_R_factor_gt           0.0364
_refine_ls_shift/su_max          0.000
_refine_ls_shift/su_mean         0.000
_refine_ls_structure_factor_coef Fsqd
_refine_ls_weighting_details
'calc w=1/[\s^2^(Fo^2^)+(0.0463P)^2^+0.0040P] where P=(Fo^2^+2Fc^2^)/3'
_refine_ls_weighting_scheme      calc
_refine_ls_wR_factor_gt          0.0816
_refine_ls_wR_factor_ref         0.0910
_reflns_number_gt                416
_reflns_number_total             613
_reflns_threshold_expression     >4sigma(I)
_cod_data_source_file            ja074885rsi20070703_084750.cif
_cod_data_source_block           2pha
_cod_original_cell_volume        893.2(3)
_cod_database_code               4110044
loop_
_symmetry_equiv_pos_as_xyz
'x, y, z'
'-x, -y, -z'
loop_
_atom_site_label
_atom_site_type_symbol
_atom_site_fract_x
_atom_site_fract_y
_atom_site_fract_z
_atom_site_U_iso_or_equiv
_atom_site_adp_type
_atom_site_occupancy
_atom_site_symmetry_multiplicity
_atom_site_calc_flag
_atom_site_refinement_flags
C1 C 0.0333(11) 0.3556(10) -0.0785(14) 0.063(2) Uiso 1 1 d .
C2 C -0.0043(9) 0.4021(9) -0.1453(12) 0.0417(16) Uiso 1 1 d .
H2 H -0.1290 0.3709 -0.1602 0.050 Uiso 1 1 calc R
C3 C 0.1344(7) 0.5068(8) -0.2067(10) 0.0670(13) Uiso 1 1 d .
H3 H 0.1070 0.5408 -0.2594 0.080 Uiso 1 1 calc R
C4 C 0.3123(9) 0.5488(8) -0.1762(12) 0.0526(17) Uiso 1 1 d .
H4 H 0.4073 0.6160 -0.2103 0.063 Uiso 1 1 calc R
C5 C 0.3511(10) 0.4983(8) -0.1021(12) 0.0598(18) Uiso 1 1 d .
H5 H 0.4708 0.5260 -0.0828 0.072 Uiso 1 1 calc R
C6 C 0.2065(6) 0.4038(6) -0.0562(9) 0.0603(12) Uiso 1 1 d .
H6 H 0.2292 0.3680 -0.0032 0.072 Uiso 1 1 calc R
C7 C -0.1236(7) 0.2615(7) -0.0302(9) 0.0644(12) Uiso 1 1 d .
C8 C -0.2453(7) 0.1769(8) 0.0197(10) 0.0882(15) Uiso 1 1 d .
H8 H -0.3373 0.1130 0.0575 0.106 Uiso 1 1 calc R
C11 C 0.5182(6) 0.0297(6) 0.2444(8) 0.0542(11) Uiso 1 1 d .
C12 C 0.3085(6) 0.1291(6) 0.2262(8) 0.0575(11) Uiso 1 1 d .
H12 H 0.2614 0.2122 0.2466 0.069 Uiso 1 1 calc R
C13 C 0.1753(6) 0.1052(6) 0.1794(8) 0.0582(11) Uiso 1 1 d .
H13 H 0.0314 0.1707 0.1682 0.070 Uiso 1 1 calc R
C14 C 0.2438(5) -0.0158(6) 0.1462(8) 0.0662(12) Uiso 1 1 d .
H14 H 0.1532 -0.0283 0.1108 0.079 Uiso 1 1 calc R
C15 C 0.4523(5) -0.1165(6) 0.1681(7) 0.0611(12) Uiso 1 1 d .
H15 H 0.4968 -0.2025 0.1498 0.073 Uiso 1 1 calc R
C16 C 0.5870(6) -0.0937(6) 0.2134(8) 0.0585(11) Uiso 1 1 d .
H16 H 0.7298 -0.1601 0.2252 0.070 Uiso 1 1 calc R
C17 C 0.6529(6) 0.0473(6) 0.3032(9) 0.0601(11) Uiso 1 1 d .
C18 C 0.7680(7) 0.0653(6) 0.3447(9) 0.0792(13) Uiso 1 1 d .
H18 H 0.8619 0.0800 0.3785 0.095 Uiso 1 1 calc R
C21 C 0.0688(6) 0.6412(7) -0.4438(9) 0.0596(12) Uiso 1 1 d .
C22 C 0.1589(6) 0.4864(7) -0.4275(9) 0.0751(13) Uiso 1 1 d .
H22 H 0.3074 0.4515 -0.4480 0.090 Uiso 1 1 calc R
C23 C 0.0128(7) 0.3800(8) -0.3771(10) 0.0865(14) Uiso 1 1 d .
H23 H 0.0718 0.2734 -0.3607 0.104 Uiso 1 1 calc R
C24 C -0.2134(8) 0.4334(8) -0.3527(11) 0.1057(17) Uiso 1 1 d .
H24 H -0.3089 0.3628 -0.3219 0.127 Uiso 1 1 calc R
C25 C -0.2974(7) 0.5897(7) -0.3736(9) 0.0902(15) Uiso 1 1 d .
H25 H -0.4518 0.6249 -0.3578 0.108 Uiso 1 1 calc R
C26 C -0.1621(6) 0.6931(6) -0.4163(8) 0.0674(12) Uiso 1 1 d .
H26 H -0.2200 0.7996 -0.4281 0.081 Uiso 1 1 calc R
C27 C 0.2061(7) 0.7536(7) -0.4956(9) 0.0787(14) Uiso 1 1 d .
C28 C 0.3236(8) 0.8401(8) -0.5346(11) 0.0967(16) Uiso 1 1 d .
H28 H 0.4188 0.9102 -0.5662 0.116 Uiso 1 1 calc R
loop_
_atom_type_symbol
_atom_type_description
_atom_type_scat_dispersion_real
_atom_type_scat_dispersion_imag
_atom_type_scat_source
C C 0.0033 0.0016 'International Tables Vol C Tables 4.2.6.8 and 6.1.1.4'
H H 0.0000 0.0000 'International Tables Vol C Tables 4.2.6.8 and 6.1.1.4'
loop_
_geom_angle_atom_site_label_1
_geom_angle_atom_site_label_2
_geom_angle_atom_site_label_3
_geom_angle
C2 C1 C6 118.3(15)
C2 C1 C7 114.7(7)
C6 C1 C7 126.9(17)
C1 C2 C3 124.2(7)
C1 C2 H2 117.9
C3 C2 H2 117.9
C4 C3 C2 112.1(13)
C4 C3 H3 123.9
C2 C3 H3 123.9
C5 C4 C3 123.3(13)
C5 C4 H4 118.4
C3 C4 H4 118.4
C4 C5 C6 115.2(7)
C4 C5 H5 122.4
C6 C5 H5 122.4
C1 C6 C5 126.8(14)
C1 C6 H6 116.6
C5 C6 H6 116.6
C8 C7 C1 172.0(12)
C7 C8 H8 180.0
C12 C11 C16 120.0(8)
C12 C11 C17 118.5(6)
C16 C11 C17 121.2(5)
C13 C12 C11 119.1(5)
C13 C12 H12 120.5
C11 C12 H12 120.5
C12 C13 C14 121.8(4)
C12 C13 H13 119.1
C14 C13 H13 119.1
C15 C14 C13 117.2(7)
C15 C14 H14 121.4
C13 C14 H14 121.4
C16 C15 C14 121.6(5)
C16 C15 H15 119.2
C14 C15 H15 119.2
C15 C16 C11 120.1(5)
C15 C16 H16 120.0
C11 C16 H16 120.0
C18 C17 C11 175.3(11)
C17 C18 H18 180.0
C22 C21 C26 121.4(8)
C22 C21 C27 118.8(6)
C26 C21 C27 119.6(5)
C21 C22 C23 116.4(7)
C21 C22 H22 121.8
C23 C22 H22 121.8
C24 C23 C22 120.8(6)
C24 C23 H23 119.6
C22 C23 H23 119.6
C25 C24 C23 119.9(9)
C25 C24 H24 120.0
C23 C24 H24 120.0
C26 C25 C24 121.0(6)
C26 C25 H25 119.5
C24 C25 H25 119.5
C25 C26 C21 120.1(5)
C25 C26 H26 119.9
C21 C26 H26 119.9
C28 C27 C21 176.9(11)
C27 C28 H28 180.0
loop_
_geom_bond_atom_site_label_1
_geom_bond_atom_site_label_2
_geom_bond_distance
C1 C2 1.18(4)
C1 C6 1.330(9)
C1 C7 1.397(17)
C2 C3 1.48(2)
C2 H2 0.9300
C3 C4 1.404(10)
C3 H3 0.9300
C4 C5 1.31(3)
C4 H4 0.9300
C5 C6 1.336(14)
C5 H5 0.9300
C6 H6 0.9300
C7 C8 1.231(15)
C8 H8 0.9300
C11 C12 1.375(6)
C11 C16 1.389(8)
C11 C17 1.470(14)
C12 C13 1.316(10)
C12 H12 0.9300
C13 C14 1.395(8)
C13 H13 0.9300
C14 C15 1.385(6)
C14 H14 0.9300
C15 C16 1.297(10)
C15 H15 0.9300
C16 H16 0.9300
C17 C18 1.140(12)
C18 H18 0.9300
C21 C22 1.359(7)
C21 C26 1.411(8)
C21 C27 1.443(13)
C22 C23 1.433(11)
C22 H22 0.9300
C23 C24 1.374(9)
C23 H23 0.9300
C24 C25 1.361(8)
C24 H24 0.9300
C25 C26 1.332(10)
C25 H25 0.9300
C26 H26 0.9300
C27 C28 1.149(14)
C28 H28 0.9300
loop_
_geom_torsion_atom_site_label_1
_geom_torsion_atom_site_label_2
_geom_torsion_atom_site_label_3
_geom_torsion_atom_site_label_4
_geom_torsion
C6 C1 C2 C3 2.2(11)
C7 C1 C2 C3 178.3(3)
C1 C2 C3 C4 -1.8(8)
C2 C3 C4 C5 1.1(8)
C3 C4 C5 C6 -0.8(9)
C2 C1 C6 C5 -1.9(10)
C7 C1 C6 C5 -177.5(4)
C4 C5 C6 C1 1.2(8)
C2 C1 C7 C8 179(3)
C6 C1 C7 C8 -6(4)
C16 C11 C12 C13 0.1(16)
C17 C11 C12 C13 -173.5(9)
C11 C12 C13 C14 -1.7(15)
C12 C13 C14 C15 3.8(14)
C13 C14 C15 C16 -4.6(14)
C14 C15 C16 C11 3.1(15)
C12 C11 C16 C15 -0.8(16)
C17 C11 C16 C15 172.6(9)
C12 C11 C17 C18 -107(5)
C16 C11 C17 C18 80(5)
C26 C21 C22 C23 -3.9(17)
C27 C21 C22 C23 -178.6(10)
C21 C22 C23 C24 5.4(15)
C22 C23 C24 C25 -2.9(18)
C23 C24 C25 C26 -1.3(19)
C24 C25 C26 C21 2.9(17)
C22 C21 C26 C25 -0.1(17)
C27 C21 C26 C25 174.6(10)
C22 C21 C27 C28 -58(17)
C26 C21 C27 C28 128(17)
