#------------------------------------------------------------------------------
#$Date: 2016-02-20 02:53:41 +0200 (Sat, 20 Feb 2016) $
#$Revision: 176768 $
#$URL: svn://www.crystallography.net/cod/cif/2/10/50/2105066.cif $
#------------------------------------------------------------------------------
#
# This file is available in the Crystallography Open Database (COD),
# http://www.crystallography.net/. The original data for this entry
# were provided by IUCr Journals, http://journals.iucr.org/.
#
# The file may be used within the scientific community so long as
# proper attribution is given to the journal article from which the
# data were obtained.
#
data_2105066
loop_
_publ_author_name
'Olmstead, Marilyn M.'
'Balch, Alan L.'
'Lee, Hon Man'
_publ_section_title
;
 An order--disorder phase transition in the structure of
 C~60~&#x00B7;4benzene
;
_journal_coeditor_code           RY5039
_journal_issue                   1
_journal_name_full               'Acta Crystallographica Section B'
_journal_page_first              66
_journal_page_last               70
_journal_paper_doi               10.1107/S0108768111046593
_journal_volume                  68
_journal_year                    2012
_chemical_formula_moiety         'C60, 4(C6 H6)'
_chemical_formula_sum            'C84 H24'
_chemical_formula_weight         1033.03
_chemical_name_common            C60^.^4benzene
_chemical_name_systematic
;
 ?
;
_space_group_IT_number           2
_symmetry_cell_setting           triclinic
_symmetry_space_group_name_Hall  '-P 1'
_symmetry_space_group_name_H-M   'P -1'
_atom_sites_solution_hydrogens   geom
_atom_sites_solution_primary     direct
_atom_sites_solution_secondary   difmap
_audit_creation_method           SHELXL-97
_cell_angle_alpha                65.371(7)
_cell_angle_beta                 88.254(5)
_cell_angle_gamma                74.912(4)
_cell_formula_units_Z            4
_cell_length_a                   9.9217(13)
_cell_length_b                   15.044(2)
_cell_length_c                   34.807(4)
_cell_measurement_reflns_used    897
_cell_measurement_temperature    93(2)
_cell_measurement_theta_max      20.0
_cell_measurement_theta_min      3.5
_cell_volume                     4541.9(10)
_computing_cell_refinement       'SMART 5.054 (Bruker, 2002)'
_computing_data_collection       'SMART 5.054 (Bruker, 2002)'
_computing_data_reduction        'SAINT 6.35 (Bruker, 2002)'
_computing_molecular_graphics    'SHELXTL 5.1, XP (Sheldrick, 2008)'
_computing_publication_material  'SHELXL-97 (Sheldrick, 2008)'
_computing_structure_refinement  'SHELXL-97 (Sheldrick, 2008)'
_computing_structure_solution    'SHELXS-97 (Sheldrick, 2008)'
_diffrn_ambient_temperature      93(2)
_diffrn_detector_area_resol_mean 8.3
_diffrn_measured_fraction_theta_full 0.966
_diffrn_measured_fraction_theta_max 0.966
_diffrn_measurement_device_type  'Bruker SMART 1000'
_diffrn_measurement_method       \w
_diffrn_radiation_monochromator  graphite
_diffrn_radiation_source         'normal-focus sealed tube'
_diffrn_radiation_type           MoK\a
_diffrn_radiation_wavelength     0.71073
_diffrn_reflns_av_R_equivalents  0.0443
_diffrn_reflns_av_sigmaI/netI    0.0509
_diffrn_reflns_limit_h_max       14
_diffrn_reflns_limit_h_min       -14
_diffrn_reflns_limit_k_max       21
_diffrn_reflns_limit_k_min       -19
_diffrn_reflns_limit_l_max       49
_diffrn_reflns_limit_l_min       -49
_diffrn_reflns_number            60046
_diffrn_reflns_theta_full        30.51
_diffrn_reflns_theta_max         30.51
_diffrn_reflns_theta_min         0.65
_diffrn_standards_number         0
_exptl_absorpt_coefficient_mu    0.086
_exptl_absorpt_correction_T_max  0.980
_exptl_absorpt_correction_T_min  0.973
_exptl_absorpt_correction_type   none
_exptl_crystal_colour            black
_exptl_crystal_density_diffrn    1.511
_exptl_crystal_density_method    'not measured'
_exptl_crystal_description       block
_exptl_crystal_F_000             2112
_exptl_crystal_size_max          0.32
_exptl_crystal_size_mid          0.28
_exptl_crystal_size_min          0.24
_refine_diff_density_max         0.425
_refine_diff_density_min         -0.324
_refine_ls_extinction_method     'omitted 0,0,2; 0,1,0; 0,1,1'
_refine_ls_goodness_of_fit_ref   0.983
_refine_ls_hydrogen_treatment    constr
_refine_ls_matrix_type           full
_refine_ls_number_parameters     1561
_refine_ls_number_reflns         26819
_refine_ls_number_restraints     0
_refine_ls_restrained_S_all      0.983
_refine_ls_R_factor_all          0.0927
_refine_ls_R_factor_gt           0.0529
_refine_ls_shift/su_max          0.040
_refine_ls_shift/su_mean         0.001
_refine_ls_structure_factor_coef Fsqd
_refine_ls_weighting_details
'calc w=1/[\s^2^(Fo^2^)+(0.0761P)^2^] where P=(Fo^2^+2Fc^2^)/3'
_refine_ls_weighting_scheme      calc
_refine_ls_wR_factor_gt          0.1308
_refine_ls_wR_factor_ref         0.1449
_reflns_number_gt                16366
_reflns_number_total             26819
_reflns_threshold_expression     I>2\s(I)
_cod_data_source_file            ry5039.cif
_cod_data_source_block           II
_cod_original_cell_volume        4541.8(10)
_cod_database_code               2105066
_cod_database_fobs_code          2105066
loop_
_symmetry_equiv_pos_as_xyz
'x, y, z'
'-x, -y, -z'
loop_
_atom_site_type_symbol
_atom_site_label
_atom_site_fract_x
_atom_site_fract_y
_atom_site_fract_z
_atom_site_U_iso_or_equiv
_atom_site_adp_type
_atom_site_calc_flag
_atom_site_refinement_flags
_atom_site_occupancy
_atom_site_symmetry_multiplicity
_atom_site_disorder_assembly
_atom_site_disorder_group
C C1 0.12675(15) 0.37925(11) 0.86133(5) 0.0252(3) Uani d . 1 1 . .
C C2 0.25640(17) 0.39724(11) 0.86254(5) 0.0265(3) Uani d . 1 1 . .
C C3 0.36135(16) 0.32858(12) 0.89750(5) 0.0246(3) Uani d . 1 1 . .
C C4 0.33224(15) 0.24444(12) 0.92957(5) 0.0231(3) Uani d . 1 1 . .
C C5 0.19668(15) 0.22532(12) 0.92825(5) 0.0228(3) Uani d . 1 1 . .
C C6 0.09590(15) 0.29143(12) 0.89483(5) 0.0239(3) Uani d . 1 1 . .
C C7 0.01283(14) 0.25112(12) 0.87595(5) 0.0241(3) Uani d . 1 1 . .
C C8 -0.00843(14) 0.31402(12) 0.83048(5) 0.0244(3) Uani d . 1 1 . .
C C9 0.06195(15) 0.39312(11) 0.82151(5) 0.0258(3) Uani d . 1 1 . .
C C10 0.12999(15) 0.42488(11) 0.78478(5) 0.0260(3) Uani d . 1 1 . .
C C11 0.26529(16) 0.44463(10) 0.78591(5) 0.0253(3) Uani d . 1 1 . .
C C12 0.32743(16) 0.43091(11) 0.82408(5) 0.0261(3) Uani d . 1 1 . .
C C13 0.47599(16) 0.38295(11) 0.83507(5) 0.0259(3) Uani d . 1 1 . .
C C14 0.49734(16) 0.31963(12) 0.88065(5) 0.0262(3) Uani d . 1 1 . .
C C15 0.59864(15) 0.22728(12) 0.89675(5) 0.0258(3) Uani d . 1 1 . .
C C16 0.56863(15) 0.13923(12) 0.93046(5) 0.0244(3) Uani d . 1 1 . .
C C17 0.43822(15) 0.14738(12) 0.94654(4) 0.0233(3) Uani d . 1 1 . .
C C18 0.36905(15) 0.06773(12) 0.95566(4) 0.0232(3) Uani d . 1 1 . .
C C19 0.21906(15) 0.11656(12) 0.94426(5) 0.0244(3) Uani d . 1 1 . .
C C20 0.14031(15) 0.07770(12) 0.92621(5) 0.0241(3) Uani d . 1 1 . .
C C21 0.03483(14) 0.14653(12) 0.89128(5) 0.0241(3) Uani d . 1 1 . .
C C22 0.03624(14) 0.10053(12) 0.86201(5) 0.0248(3) Uani d . 1 1 . .
C C23 0.01549(14) 0.16094(12) 0.81855(5) 0.0254(3) Uani d . 1 1 . .
C C24 -0.00667(14) 0.26959(12) 0.80247(5) 0.0250(3) Uani d . 1 1 . .
C C25 0.06422(14) 0.30309(12) 0.76411(5) 0.0242(3) Uani d . 1 1 . .
C C26 0.13075(15) 0.37895(11) 0.75548(5) 0.0241(3) Uani d . 1 1 . .
C C27 0.26653(15) 0.37001(11) 0.73851(4) 0.0231(3) Uani d . 1 1 . .
C C28 0.34947(16) 0.41069(11) 0.75731(5) 0.0248(3) Uani d . 1 1 . .
C C29 0.49262(16) 0.36470(11) 0.76794(5) 0.0247(3) Uani d . 1 1 . .
C C30 0.55715(16) 0.35063(12) 0.80769(5) 0.0257(3) Uani d . 1 1 . .
C C31 0.66329(14) 0.25329(12) 0.82454(5) 0.0245(3) Uani d . 1 1 . .
C C32 0.68334(14) 0.19312(12) 0.86796(5) 0.0256(3) Uani d . 1 1 . .
C C33 0.70574(14) 0.08445(12) 0.88414(5) 0.0250(3) Uani d . 1 1 . .
C C34 0.63527(14) 0.05093(12) 0.92267(5) 0.0248(3) Uani d . 1 1 . .
C C35 0.56842(15) -0.02521(11) 0.93128(5) 0.0252(3) Uani d . 1 1 . .
C C36 0.43247(16) -0.01652(11) 0.94824(4) 0.0248(3) Uani d . 1 1 . .
C C37 0.34943(16) -0.05678(11) 0.92916(5) 0.0250(3) Uani d . 1 1 . .
C C38 0.20751(16) -0.01070(11) 0.91843(5) 0.0249(3) Uani d . 1 1 . .
C C39 0.14267(16) 0.00338(12) 0.87883(5) 0.0258(3) Uani d . 1 1 . .
C C40 0.10097(15) 0.12675(12) 0.78994(5) 0.0257(3) Uani d . 1 1 . .
C C41 0.13080(15) 0.21459(12) 0.75640(5) 0.0236(3) Uani d . 1 1 . .
C C42 0.26102(15) 0.20629(12) 0.74011(4) 0.0229(3) Uani d . 1 1 . .
C C43 0.32994(15) 0.28572(11) 0.73108(4) 0.0221(3) Uani d . 1 1 . .
C C44 0.47972(15) 0.23755(12) 0.74232(4) 0.0235(3) Uani d . 1 1 . .
C C45 0.55876(15) 0.27635(12) 0.76034(5) 0.0239(3) Uani d . 1 1 . .
C C46 0.66437(14) 0.20732(12) 0.79530(5) 0.0232(3) Uani d . 1 1 . .
C C47 0.68580(14) 0.10255(12) 0.81073(5) 0.0243(3) Uani d . 1 1 . .
C C48 0.70682(14) 0.03988(11) 0.85621(5) 0.0237(3) Uani d . 1 1 . .
C C49 0.63654(15) -0.03924(11) 0.86507(5) 0.0263(3) Uani d . 1 1 . .
C C50 0.56911(15) -0.07133(11) 0.90186(5) 0.0260(3) Uani d . 1 1 . .
C C51 0.43400(16) -0.09075(10) 0.90051(5) 0.0255(3) Uani d . 1 1 . .
C C52 0.37137(17) -0.07725(11) 0.86255(5) 0.0259(3) Uani d . 1 1 . .
C C53 0.22315(16) -0.02922(11) 0.85153(5) 0.0257(3) Uani d . 1 1 . .
C C54 0.20199(16) 0.03420(12) 0.80599(5) 0.0260(3) Uani d . 1 1 . .
C C55 0.33792(16) 0.02495(12) 0.78904(5) 0.0244(3) Uani d . 1 1 . .
C C56 0.36694(15) 0.10932(12) 0.75690(5) 0.0228(3) Uani d . 1 1 . .
C C57 0.50234(15) 0.12836(12) 0.75822(5) 0.0224(3) Uani d . 1 1 . .
C C58 0.60302(15) 0.06194(12) 0.79187(5) 0.0234(3) Uani d . 1 1 . .
C C59 0.57200(16) -0.02561(11) 0.82523(5) 0.0251(3) Uani d . 1 1 . .
C C60 0.44267(17) -0.04403(11) 0.82408(5) 0.0258(3) Uani d . 1 1 . .
C C61 0.48750(16) 0.23496(12) 0.24500(5) 0.0262(3) Uani d . 1 1 . .
C C62 0.52682(17) 0.12944(13) 0.26308(5) 0.0288(4) Uani d . 1 1 . .
C C63 0.63292(17) 0.07297(13) 0.29890(5) 0.0317(4) Uani d . 1 1 . .
C C64 0.69481(15) 0.12502(14) 0.31468(5) 0.0329(4) Uani d . 1 1 . .
C C65 0.65431(15) 0.23507(14) 0.29578(5) 0.0294(4) Uani d . 1 1 . .
C C66 0.55199(15) 0.28922(12) 0.26160(5) 0.0262(3) Uani d . 1 1 . .
C C67 0.44571(16) 0.37837(12) 0.25962(5) 0.0268(3) Uani d . 1 1 . .
C C68 0.31460(16) 0.37831(12) 0.24185(5) 0.0279(3) Uani d . 1 1 . .
C C69 0.34045(16) 0.28981(12) 0.23274(4) 0.0259(3) Uani d . 1 1 . .
C C70 0.24059(17) 0.23647(14) 0.23961(5) 0.0317(4) Uani d . 1 1 . .
C C71 0.28104(19) 0.12710(14) 0.25875(5) 0.0340(4) Uani d . 1 1 . .
C C72 0.42068(19) 0.07444(13) 0.27009(5) 0.0332(4) Uani d . 1 1 . .
C C73 0.4621(2) -0.01608(13) 0.31019(6) 0.0360(4) Uani d . 1 1 . .
C C74 0.59191(18) -0.01615(13) 0.32775(6) 0.0358(4) Uani d . 1 1 . .
C C75 0.61628(18) -0.05019(12) 0.37157(6) 0.0359(4) Uani d . 1 1 . .
C C76 0.68123(15) 0.00340(14) 0.38796(5) 0.0354(4) Uani d . 1 1 . .
C C77 0.72003(14) 0.08954(14) 0.36014(5) 0.0340(4) Uani d . 1 1 . .
C C78 0.69470(15) 0.17749(15) 0.36951(5) 0.0338(4) Uani d . 1 1 . .
C C79 0.65347(16) 0.26806(14) 0.32943(5) 0.0320(4) Uani d . 1 1 . .
C C80 0.55217(18) 0.35291(13) 0.32742(6) 0.0331(4) Uani d . 1 1 . .
C C81 0.44607(18) 0.40940(12) 0.29192(5) 0.0303(4) Uani d . 1 1 . .
C C82 0.31480(19) 0.44315(12) 0.30794(6) 0.0342(4) Uani d . 1 1 . .
C C83 0.18909(18) 0.44383(11) 0.29053(6) 0.0328(4) Uani d . 1 1 . .
C C84 0.18957(16) 0.41088(12) 0.25707(5) 0.0311(4) Uani d . 1 1 . .
C C85 0.08406(15) 0.35545(13) 0.26392(5) 0.0316(4) Uani d . 1 1 . .
C C86 0.10808(16) 0.27092(14) 0.25555(5) 0.0331(4) Uani d . 1 1 . .
C C87 0.06857(17) 0.18199(14) 0.28436(5) 0.0348(4) Uani d . 1 1 . .
C C88 0.17432(19) 0.09295(14) 0.28646(5) 0.0341(4) Uani d . 1 1 . .
C C89 0.2142(2) 0.00714(13) 0.32445(6) 0.0359(4) Uani d . 1 1 . .
C C90 0.3600(2) -0.04871(12) 0.33680(6) 0.0358(4) Uani d . 1 1 . .
C C91 0.38553(19) -0.08408(11) 0.38223(6) 0.0334(4) Uani d . 1 1 . .
C C92 0.51097(18) -0.08454(11) 0.39937(5) 0.0319(4) Uani d . 1 1 . .
C C93 0.51060(16) -0.05162(12) 0.43299(5) 0.0305(4) Uani d . 1 1 . .
C C94 0.61627(15) 0.00328(13) 0.42610(5) 0.0313(4) Uani d . 1 1 . .
C C95 0.59233(16) 0.08770(15) 0.43464(5) 0.0344(4) Uani d . 1 1 . .
C C96 0.63179(17) 0.17700(15) 0.40582(5) 0.0359(4) Uani d . 1 1 . .
C C97 0.52601(18) 0.26596(14) 0.40363(5) 0.0346(4) Uani d . 1 1 . .
C C98 0.4856(2) 0.35196(14) 0.36575(6) 0.0366(4) Uani d . 1 1 . .
C C99 0.3403(2) 0.40737(12) 0.35348(6) 0.0350(4) Uani d . 1 1 . .
C C100 0.08323(17) 0.40939(12) 0.31850(6) 0.0344(4) Uani d . 1 1 . .
C C101 0.01867(15) 0.35546(13) 0.30212(6) 0.0347(4) Uani d . 1 1 . .
C C102 -0.01982(14) 0.26952(13) 0.32984(5) 0.0317(4) Uani d . 1 1 . .
C C103 0.00590(15) 0.18160(14) 0.32058(5) 0.0334(4) Uani d . 1 1 . .
C C104 0.04708(16) 0.09082(13) 0.36067(5) 0.0296(4) Uani d . 1 1 . .
C C105 0.14820(18) 0.00650(13) 0.36257(5) 0.0311(4) Uani d . 1 1 . .
C C106 0.25454(17) -0.04980(11) 0.39806(5) 0.0289(4) Uani d . 1 1 . .
C C107 0.25442(16) -0.01871(11) 0.43021(5) 0.0250(3) Uani d . 1 1 . .
C C108 0.38557(16) -0.01910(12) 0.44813(5) 0.0264(3) Uani d . 1 1 . .
C C109 0.36026(16) 0.06920(12) 0.45709(4) 0.0243(3) Uani d . 1 1 . .
C C110 0.46005(17) 0.12237(14) 0.45042(5) 0.0300(4) Uani d . 1 1 . .
C C111 0.41914(19) 0.23135(14) 0.43146(5) 0.0334(4) Uani d . 1 1 . .
C C112 0.27977(18) 0.28415(13) 0.41973(5) 0.0314(4) Uani d . 1 1 . .
C C113 0.2384(2) 0.37446(13) 0.37990(6) 0.0352(4) Uani d . 1 1 . .
C C114 0.10759(18) 0.37550(12) 0.36214(6) 0.0334(4) Uani d . 1 1 . .
C C115 0.06723(16) 0.28594(12) 0.39119(5) 0.0293(4) Uani d . 1 1 . .
C C116 0.00528(14) 0.23403(13) 0.37529(5) 0.0291(4) Uani d . 1 1 . .
C C117 0.04617(15) 0.12401(12) 0.39429(5) 0.0258(3) Uani d . 1 1 . .
C C118 0.14839(15) 0.07012(12) 0.42842(5) 0.0236(3) Uani d . 1 1 . .
C C119 0.21291(15) 0.12440(12) 0.44486(5) 0.0233(3) Uani d . 1 1 . .
C C120 0.17371(16) 0.22962(12) 0.42665(5) 0.0259(3) Uani d . 1 1 . .
C C121 0.40774(17) 0.37484(13) 0.59107(5) 0.0300(4) Uani d . 1 1 . .
H H12A 0.4457 0.3267 0.5799 0.036 Uiso calc R 1 1 . .
C C122 0.47818(17) 0.37173(12) 0.62569(5) 0.0282(3) Uani d . 1 1 . .
H H12B 0.5642 0.3215 0.6382 0.034 Uiso calc R 1 1 . .
C C123 0.42244(16) 0.44227(12) 0.64182(5) 0.0262(3) Uani d . 1 1 . .
H H12C 0.4712 0.4410 0.6652 0.031 Uiso calc R 1 1 . .
C C124 0.29597(16) 0.51452(12) 0.62402(5) 0.0270(3) Uani d . 1 1 . .
H H12D 0.2575 0.5622 0.6354 0.032 Uiso calc R 1 1 . .
C C125 0.22544(16) 0.51746(12) 0.58960(5) 0.0267(3) Uani d . 1 1 . .
H H12E 0.1384 0.5669 0.5775 0.032 Uiso calc R 1 1 . .
C C126 0.28191(16) 0.44830(12) 0.57286(5) 0.0288(3) Uani d . 1 1 . .
H H12F 0.2345 0.4511 0.5489 0.035 Uiso calc R 1 1 . .
C C127 0.26836(15) 0.49327(11) 0.44663(5) 0.0235(3) Uani d . 1 1 . .
H H12G 0.2734 0.5559 0.4244 0.028 Uiso calc R 1 1 . .
C C128 0.39085(15) 0.41945(11) 0.46856(5) 0.0218(3) Uani d . 1 1 . .
H H12H 0.4795 0.4318 0.4615 0.026 Uiso calc R 1 1 . .
C C129 0.38279(15) 0.32776(11) 0.50076(5) 0.0213(3) Uani d . 1 1 . .
H H12I 0.4662 0.2771 0.5157 0.026 Uiso calc R 1 1 . .
C C130 0.25311(15) 0.30988(11) 0.51121(5) 0.0221(3) Uani d . 1 1 . .
H H13A 0.2480 0.2471 0.5332 0.026 Uiso calc R 1 1 . .
C C131 0.13063(15) 0.38379(11) 0.48945(5) 0.0234(3) Uani d . 1 1 . .
H H13B 0.0419 0.3717 0.4966 0.028 Uiso calc R 1 1 . .
C C132 0.13899(15) 0.47537(11) 0.45723(5) 0.0244(3) Uani d . 1 1 . .
H H13C 0.0556 0.5261 0.4424 0.029 Uiso calc R 1 1 . .
C C133 0.87258(15) 0.24804(11) 0.55743(5) 0.0252(3) Uani d . 1 1 . .
H H13D 0.8656 0.2726 0.5787 0.030 Uiso calc R 1 1 . .
C C134 0.76720(15) 0.28952(11) 0.52459(5) 0.0262(3) Uani d . 1 1 . .
H H13E 0.6882 0.3427 0.5234 0.031 Uiso calc R 1 1 . .
C C135 0.77705(16) 0.25344(12) 0.49358(5) 0.0268(3) Uani d . 1 1 . .
H H13F 0.7046 0.2817 0.4712 0.032 Uiso calc R 1 1 . .
C C136 0.89276(16) 0.17605(12) 0.49523(5) 0.0277(3) Uani d . 1 1 . .
H H13G 0.8994 0.1511 0.4741 0.033 Uiso calc R 1 1 . .
C C137 0.99909(15) 0.13512(12) 0.52799(5) 0.0278(3) Uani d . 1 1 . .
H H13H 1.0790 0.0829 0.5290 0.033 Uiso calc R 1 1 . .
C C138 0.98842(15) 0.17048(11) 0.55907(5) 0.0263(3) Uani d . 1 1 . .
H H13I 1.0603 0.1418 0.5816 0.032 Uiso calc R 1 1 . .
C C139 0.30247(17) 0.51237(12) 0.12339(5) 0.0281(3) Uani d . 1 1 . .
H H13J 0.2716 0.5625 0.1340 0.034 Uiso calc R 1 1 . .
C C140 0.22223(16) 0.51405(12) 0.09097(5) 0.0286(3) Uani d . 1 1 . .
H H14A 0.1360 0.5650 0.0795 0.034 Uiso calc R 1 1 . .
C C141 0.26834(17) 0.44108(13) 0.07539(5) 0.0310(4) Uani d . 1 1 . .
H H14B 0.2149 0.4429 0.0528 0.037 Uiso calc R 1 1 . .
C C142 0.39244(17) 0.36565(13) 0.09290(5) 0.0310(4) Uani d . 1 1 . .
H H14C 0.4228 0.3150 0.0826 0.037 Uiso calc R 1 1 . .
C C143 0.47269(17) 0.36355(12) 0.12533(5) 0.0286(3) Uani d . 1 1 . .
H H14D 0.5579 0.3118 0.1372 0.034 Uiso calc R 1 1 . .
C C144 0.42738(17) 0.43770(12) 0.14024(5) 0.0272(3) Uani d . 1 1 . .
H H14E 0.4826 0.4372 0.1622 0.033 Uiso calc R 1 1 . .
C C145 1.01235(16) 0.13420(13) 0.02502(5) 0.0348(4) Uani d . 1 1 . .
H H14F 1.0916 0.0825 0.0251 0.042 Uiso calc R 1 1 . .
C C146 1.00548(16) 0.16808(12) 0.05655(5) 0.0323(4) Uani d . 1 1 . .
H H14G 1.0798 0.1393 0.0784 0.039 Uiso calc R 1 1 . .
C C147 0.88996(17) 0.24415(12) 0.05639(6) 0.0321(4) Uani d . 1 1 . .
H H14H 0.8855 0.2677 0.0780 0.039 Uiso calc R 1 1 . .
C C148 0.78108(17) 0.28560(12) 0.02450(6) 0.0320(4) Uani d . 1 1 . .
H H14I 0.7021 0.3377 0.0243 0.038 Uiso calc R 1 1 . .
C C149 0.78748(16) 0.25106(12) -0.00699(5) 0.0294(4) Uani d . 1 1 . .
H H14J 0.7126 0.2790 -0.0286 0.035 Uiso calc R 1 1 . .
C C150 0.90295(17) 0.17595(13) -0.00686(5) 0.0327(4) Uani d . 1 1 . .
H H15A 0.9077 0.1528 -0.0285 0.039 Uiso calc R 1 1 . .
C C151 0.28224(16) 0.49816(12) -0.05464(5) 0.0265(3) Uani d . 1 1 . .
H H15B 0.2878 0.5618 -0.0759 0.032 Uiso calc R 1 1 . .
C C152 0.40350(15) 0.42463(11) -0.03230(5) 0.0240(3) Uani d . 1 1 . .
H H15C 0.4922 0.4380 -0.0381 0.029 Uiso calc R 1 1 . .
C C153 0.39499(15) 0.33129(11) -0.00141(5) 0.0233(3) Uani d . 1 1 . .
H H15D 0.4779 0.2807 0.0139 0.028 Uiso calc R 1 1 . .
C C154 0.26556(15) 0.31204(11) 0.00705(5) 0.0228(3) Uani d . 1 1 . .
H H15E 0.2601 0.2481 0.0281 0.027 Uiso calc R 1 1 . .
C C155 0.14349(15) 0.38584(12) -0.01509(5) 0.0250(3) Uani d . 1 1 . .
H H15F 0.0548 0.3726 -0.0092 0.030 Uiso calc R 1 1 . .
C C156 0.15246(16) 0.47874(12) -0.04582(5) 0.0280(3) Uani d . 1 1 . .
H H15G 0.0695 0.5295 -0.0610 0.034 Uiso calc R 1 1 . .
C C1A 0.9352(13) 0.3421(7) 0.6581(4) 0.058(4) Uani d P 0.50 1 A 1
H H1A 0.9253 0.4131 0.6467 0.070 Uiso calc PR 0.50 1 A 1
C C2A 1.0510(5) 0.2773(5) 0.64786(12) 0.0373(12) Uani d P 0.50 1 A 1
H H2A 1.1167 0.3050 0.6294 0.045 Uiso calc PR 0.50 1 A 1
C C3A 1.0646(3) 0.1737(3) 0.66546(12) 0.0181(6) Uani d P 0.50 1 A 1
H H3A 1.1409 0.1295 0.6595 0.022 Uiso calc PR 0.50 1 A 1
C C4A 0.9691(4) 0.1353(2) 0.69125(11) 0.0194(6) Uani d P 0.50 1 A 1
H H4A 0.9797 0.0642 0.7035 0.023 Uiso calc PR 0.50 1 A 1
C C5A 0.8569(3) 0.1982(4) 0.69998(11) 0.0236(8) Uani d P 0.50 1 A 1
H H5A 0.7890 0.1708 0.7174 0.028 Uiso calc PR 0.50 1 A 1
C C6A 0.8435(4) 0.3038(4) 0.68284(15) 0.0295(11) Uani d P 0.50 1 A 1
H H6A 0.7674 0.3471 0.6893 0.035 Uiso calc PR 0.50 1 A 1
C C7A 1.0070(8) 0.3166(5) 0.15061(14) 0.0426(15) Uani d P 0.50 1 B 2
H H7A 1.0419 0.3732 0.1346 0.051 Uiso calc PR 0.50 1 B 2
C C8A 0.8796(8) 0.3296(4) 0.16787(19) 0.0424(17) Uani d P 0.50 1 B 2
H H8A 0.8238 0.3964 0.1620 0.051 Uiso calc PR 0.50 1 B 2
C C9A 0.8319(4) 0.2463(6) 0.19375(16) 0.0355(11) Uani d P 0.50 1 B 2
H H9A 0.7456 0.2553 0.2061 0.043 Uiso calc PR 0.50 1 B 2
C C10A 0.9135(8) 0.1509(4) 0.20080(13) 0.0354(10) Uani d P 0.50 1 B 2
H H10A 0.8849 0.0928 0.2191 0.043 Uiso calc PR 0.50 1 B 2
C C11A 1.0339(7) 0.1388(4) 0.18200(17) 0.0400(10) Uani d P 0.50 1 B 2
H H11A 1.0859 0.0723 0.1862 0.048 Uiso calc PR 0.50 1 B 2
C C12A 1.0826(4) 0.2188(6) 0.15727(16) 0.0405(12) Uani d P 0.50 1 B 2
H H12J 1.1678 0.2081 0.1446 0.049 Uiso calc PR 0.50 1 B 2
C C1B 0.9177(10) 0.3435(9) 0.6633(4) 0.0330(17) Uiso d P 0.50 1 C 3
H H1B 0.8805 0.4132 0.6576 0.040 Uiso calc PR 0.50 1 C 3
C C2B 1.0368(5) 0.3135(4) 0.64755(16) 0.0277(11) Uiso d P 0.50 1 C 3
H H2B 1.0868 0.3609 0.6315 0.033 Uiso calc PR 0.50 1 C 3
C C3B 1.0855(5) 0.2130(5) 0.65500(16) 0.0339(11) Uiso d P 0.50 1 C 3
H H3B 1.1678 0.1918 0.6429 0.041 Uiso calc PR 0.50 1 C 3
C C4B 1.0186(6) 0.1434(4) 0.67930(18) 0.0418(13) Uiso d P 0.50 1 C 3
H H4B 1.0561 0.0742 0.6844 0.050 Uiso calc PR 0.50 1 C 3
C C5B 0.9013(6) 0.1704(4) 0.69616(17) 0.0391(12) Uiso d P 0.50 1 C 3
H H5B 0.8566 0.1202 0.7131 0.047 Uiso calc PR 0.50 1 C 3
C C6B 0.8448(5) 0.2687(4) 0.68947(16) 0.0253(11) Uiso d P 0.50 1 C 3
H H6B 0.7610 0.2882 0.7013 0.030 Uiso calc PR 0.50 1 C 3
C C7B 0.8574(6) 0.1869(5) 0.20216(16) 0.0329(12) Uiso d P 0.50 1 D 4
H H7B 0.7925 0.1544 0.2191 0.039 Uiso calc PR 0.50 1 D 4
C C8B 0.9778(6) 0.1315(4) 0.19442(18) 0.0303(11) Uiso d P 0.50 1 D 4
H H8B 0.9981 0.0596 0.2063 0.036 Uiso calc PR 0.50 1 D 4
C C9B 1.0693(5) 0.1786(4) 0.16983(17) 0.0247(10) Uiso d P 0.50 1 D 4
H H9B 1.1540 0.1390 0.1650 0.030 Uiso calc PR 0.50 1 D 4
C C10B 1.0415(6) 0.2819(5) 0.15196(18) 0.0260(11) Uiso d P 0.50 1 D 4
H H10B 1.1050 0.3136 0.1339 0.031 Uiso calc PR 0.50 1 D 4
C C11B 0.9209(7) 0.3411(6) 0.1599(2) 0.0333(15) Uiso d P 0.50 1 D 4
H H11B 0.9018 0.4129 0.1484 0.040 Uiso calc PR 0.50 1 D 4
C C12B 0.8308(6) 0.2915(5) 0.18495(19) 0.0300(12) Uiso d P 0.50 1 D 4
H H12K 0.7473 0.3302 0.1907 0.036 Uiso calc PR 0.50 1 D 4
loop_
_atom_site_aniso_label
_atom_site_aniso_U_11
_atom_site_aniso_U_22
_atom_site_aniso_U_33
_atom_site_aniso_U_12
_atom_site_aniso_U_13
_atom_site_aniso_U_23
C1 0.0248(7) 0.0184(7) 0.0312(8) 0.0048(6) 0.0013(6) -0.0157(7)
C2 0.0351(8) 0.0167(7) 0.0327(9) -0.0033(6) 0.0034(7) -0.0175(7)
C3 0.0298(8) 0.0262(8) 0.0286(8) -0.0086(6) 0.0011(6) -0.0212(7)
C4 0.0265(7) 0.0303(8) 0.0198(7) -0.0052(6) 0.0017(6) -0.0191(7)
C5 0.0231(7) 0.0293(8) 0.0201(7) -0.0041(6) 0.0079(6) -0.0165(6)
C6 0.0181(7) 0.0285(8) 0.0269(8) 0.0009(6) 0.0070(6) -0.0181(7)
C7 0.0112(6) 0.0338(9) 0.0271(8) -0.0011(6) 0.0050(5) -0.0157(7)
C8 0.0090(6) 0.0272(8) 0.0292(8) 0.0047(5) -0.0017(5) -0.0100(7)
C9 0.0209(7) 0.0184(7) 0.0297(8) 0.0075(6) -0.0024(6) -0.0096(6)
C10 0.0238(7) 0.0136(7) 0.0277(8) 0.0062(6) -0.0049(6) -0.0026(6)
C11 0.0308(8) 0.0083(6) 0.0287(8) -0.0024(6) -0.0018(6) -0.0016(6)
C12 0.0344(8) 0.0134(7) 0.0326(9) -0.0080(6) 0.0025(7) -0.0107(6)
C13 0.0317(8) 0.0198(8) 0.0314(9) -0.0147(6) 0.0007(7) -0.0110(7)
C14 0.0301(8) 0.0297(8) 0.0302(9) -0.0149(7) -0.0005(6) -0.0192(7)
C15 0.0220(7) 0.0361(9) 0.0270(8) -0.0130(6) -0.0035(6) -0.0173(7)
C16 0.0215(7) 0.0343(9) 0.0176(7) -0.0072(6) -0.0068(6) -0.0107(6)
C17 0.0252(7) 0.0313(8) 0.0129(7) -0.0050(6) -0.0024(5) -0.0103(6)
C18 0.0252(7) 0.0293(8) 0.0107(6) -0.0055(6) 0.0001(5) -0.0053(6)
C19 0.0245(7) 0.0323(9) 0.0143(7) -0.0076(6) 0.0075(6) -0.0084(6)
C20 0.0223(7) 0.0292(8) 0.0198(7) -0.0112(6) 0.0099(6) -0.0073(6)
C21 0.0135(6) 0.0341(9) 0.0240(8) -0.0094(6) 0.0068(5) -0.0102(7)
C22 0.0160(7) 0.0325(9) 0.0306(8) -0.0147(6) 0.0064(6) -0.0133(7)
C23 0.0137(6) 0.0376(9) 0.0299(8) -0.0118(6) -0.0006(6) -0.0162(7)
C24 0.0097(6) 0.0349(9) 0.0260(8) -0.0018(6) -0.0040(5) -0.0108(7)
C25 0.0150(7) 0.0307(8) 0.0195(7) 0.0008(6) -0.0085(5) -0.0070(6)
C26 0.0214(7) 0.0207(7) 0.0166(7) 0.0036(6) -0.0082(5) 0.0002(6)
C27 0.0280(8) 0.0188(7) 0.0121(7) -0.0047(6) -0.0023(6) 0.0025(6)
C28 0.0310(8) 0.0145(7) 0.0215(8) -0.0083(6) 0.0019(6) 0.0008(6)
C29 0.0285(8) 0.0206(8) 0.0219(8) -0.0141(6) 0.0080(6) -0.0020(6)
C30 0.0255(8) 0.0235(8) 0.0290(8) -0.0167(6) 0.0036(6) -0.0060(7)
C31 0.0143(6) 0.0329(9) 0.0292(8) -0.0132(6) 0.0051(6) -0.0123(7)
C32 0.0125(6) 0.0377(9) 0.0313(9) -0.0104(6) -0.0015(6) -0.0168(7)
C33 0.0102(6) 0.0343(9) 0.0241(8) 0.0002(6) -0.0041(5) -0.0098(7)
C34 0.0149(7) 0.0331(9) 0.0180(7) 0.0023(6) -0.0076(5) -0.0072(6)
C35 0.0240(7) 0.0210(8) 0.0168(7) 0.0050(6) -0.0065(6) -0.0009(6)
C36 0.0288(8) 0.0214(8) 0.0128(7) -0.0030(6) -0.0025(6) 0.0016(6)
C37 0.0349(8) 0.0146(7) 0.0181(7) -0.0088(6) 0.0032(6) 0.0012(6)
C38 0.0311(8) 0.0228(8) 0.0195(7) -0.0160(6) 0.0102(6) -0.0032(6)
C39 0.0268(8) 0.0233(8) 0.0294(8) -0.0176(6) 0.0059(6) -0.0072(7)
C40 0.0224(7) 0.0354(9) 0.0261(8) -0.0148(6) -0.0022(6) -0.0153(7)
C41 0.0214(7) 0.0333(9) 0.0169(7) -0.0090(6) -0.0057(5) -0.0100(6)
C42 0.0266(7) 0.0308(8) 0.0133(7) -0.0075(6) -0.0023(6) -0.0112(6)
C43 0.0248(7) 0.0275(8) 0.0096(6) -0.0074(6) 0.0003(5) -0.0035(6)
C44 0.0247(7) 0.0308(8) 0.0131(7) -0.0084(6) 0.0071(6) -0.0074(6)
C45 0.0209(7) 0.0289(8) 0.0196(7) -0.0113(6) 0.0079(6) -0.0058(6)
C46 0.0138(6) 0.0330(9) 0.0210(7) -0.0092(6) 0.0078(5) -0.0085(6)
C47 0.0115(6) 0.0353(9) 0.0256(8) -0.0017(6) 0.0059(5) -0.0155(7)
C48 0.0101(6) 0.0261(8) 0.0269(8) 0.0050(5) -0.0002(5) -0.0095(6)
C49 0.0206(7) 0.0199(8) 0.0293(8) 0.0077(6) -0.0003(6) -0.0094(6)
C50 0.0250(8) 0.0140(7) 0.0266(8) 0.0067(6) -0.0035(6) -0.0035(6)
C51 0.0330(8) 0.0084(7) 0.0262(8) -0.0022(6) 0.0017(6) -0.0008(6)
C52 0.0367(9) 0.0117(7) 0.0306(9) -0.0080(6) 0.0050(7) -0.0095(6)
C53 0.0340(8) 0.0199(8) 0.0298(8) -0.0167(6) 0.0039(7) -0.0114(7)
C54 0.0300(8) 0.0296(8) 0.0299(8) -0.0166(7) 0.0021(6) -0.0186(7)
C55 0.0316(8) 0.0251(8) 0.0270(8) -0.0096(6) 0.0042(6) -0.0201(7)
C56 0.0285(8) 0.0285(8) 0.0170(7) -0.0071(6) 0.0019(6) -0.0153(6)
C57 0.0239(7) 0.0298(8) 0.0182(7) -0.0063(6) 0.0080(6) -0.0157(6)
C58 0.0195(7) 0.0260(8) 0.0261(8) -0.0004(6) 0.0071(6) -0.0162(7)
C59 0.0268(8) 0.0184(7) 0.0276(8) 0.0047(6) 0.0033(6) -0.0138(6)
C60 0.0366(9) 0.0153(7) 0.0292(8) -0.0040(6) 0.0043(7) -0.0149(6)
C61 0.0278(8) 0.0353(9) 0.0146(7) -0.0091(7) 0.0081(6) -0.0099(7)
C62 0.0330(9) 0.0349(9) 0.0195(8) -0.0038(7) 0.0106(6) -0.0162(7)
C63 0.0258(8) 0.0343(9) 0.0285(9) 0.0057(7) 0.0109(7) -0.0157(7)
C64 0.0118(7) 0.0465(11) 0.0299(9) 0.0003(7) 0.0085(6) -0.0117(8)
C65 0.0152(7) 0.0462(10) 0.0258(8) -0.0136(7) 0.0100(6) -0.0118(8)
C66 0.0240(7) 0.0339(9) 0.0198(8) -0.0142(6) 0.0123(6) -0.0075(7)
C67 0.0300(8) 0.0229(8) 0.0221(8) -0.0144(6) 0.0093(6) -0.0007(6)
C68 0.0303(8) 0.0232(8) 0.0172(7) -0.0061(6) 0.0015(6) 0.0032(6)
C69 0.0290(8) 0.0322(9) 0.0109(7) -0.0084(7) 0.0011(6) -0.0037(6)
C70 0.0369(9) 0.0457(10) 0.0120(7) -0.0169(8) -0.0048(6) -0.0081(7)
C71 0.0503(11) 0.0435(10) 0.0212(8) -0.0217(8) 0.0010(7) -0.0207(8)
C72 0.0479(10) 0.0375(10) 0.0264(9) -0.0124(8) 0.0107(7) -0.0253(8)
C73 0.0556(11) 0.0245(9) 0.0353(10) -0.0079(8) 0.0123(8) -0.0219(8)
C74 0.0393(10) 0.0236(8) 0.0338(10) 0.0098(7) 0.0114(8) -0.0135(7)
C75 0.0307(9) 0.0230(8) 0.0331(10) 0.0145(7) 0.0041(7) -0.0048(7)
C76 0.0144(7) 0.0393(10) 0.0308(9) 0.0107(7) -0.0029(6) -0.0046(8)
C77 0.0084(6) 0.0505(11) 0.0294(9) 0.0010(7) -0.0001(6) -0.0092(8)
C78 0.0126(7) 0.0587(12) 0.0286(9) -0.0167(7) -0.0031(6) -0.0127(8)
C79 0.0215(8) 0.0495(11) 0.0317(9) -0.0246(7) 0.0060(6) -0.0149(8)
C80 0.0381(9) 0.0397(10) 0.0352(10) -0.0318(8) 0.0102(7) -0.0169(8)
C81 0.0393(9) 0.0221(8) 0.0336(9) -0.0204(7) 0.0130(7) -0.0092(7)
C82 0.0475(10) 0.0123(7) 0.0428(11) -0.0121(7) 0.0132(8) -0.0100(7)
C83 0.0357(9) 0.0095(7) 0.0373(10) 0.0026(6) 0.0079(7) -0.0002(7)
C84 0.0274(8) 0.0193(8) 0.0251(8) 0.0018(6) -0.0018(6) 0.0065(6)
C85 0.0178(7) 0.0306(9) 0.0239(8) 0.0008(6) -0.0086(6) 0.0062(7)
C86 0.0250(8) 0.0445(10) 0.0201(8) -0.0103(7) -0.0127(6) -0.0029(7)
C87 0.0278(8) 0.0503(11) 0.0264(9) -0.0211(8) -0.0096(7) -0.0094(8)
C88 0.0450(10) 0.0469(11) 0.0263(9) -0.0289(9) -0.0016(7) -0.0205(8)
C89 0.0543(11) 0.0336(10) 0.0354(10) -0.0284(8) 0.0027(8) -0.0196(8)
C90 0.0591(12) 0.0209(8) 0.0384(10) -0.0146(8) 0.0089(9) -0.0210(8)
C91 0.0506(11) 0.0119(7) 0.0342(9) -0.0063(7) 0.0074(8) -0.0080(7)
C92 0.0376(9) 0.0117(7) 0.0299(9) 0.0069(6) 0.0056(7) -0.0013(6)
C93 0.0277(8) 0.0232(8) 0.0208(8) 0.0044(6) -0.0023(6) 0.0031(6)
C94 0.0173(7) 0.0383(10) 0.0195(8) 0.0037(6) -0.0076(6) -0.0004(7)
C95 0.0227(8) 0.0564(12) 0.0189(8) -0.0129(8) -0.0091(6) -0.0089(8)
C96 0.0247(8) 0.0617(12) 0.0256(9) -0.0225(8) -0.0046(7) -0.0158(8)
C97 0.0411(10) 0.0519(11) 0.0306(9) -0.0305(9) 0.0031(7) -0.0258(9)
C98 0.0505(11) 0.0402(10) 0.0412(10) -0.0336(9) 0.0106(8) -0.0261(9)
C99 0.0544(11) 0.0222(8) 0.0429(10) -0.0203(8) 0.0160(8) -0.0224(8)
C100 0.0275(8) 0.0178(8) 0.0413(10) 0.0083(6) 0.0078(7) -0.0055(7)
C101 0.0130(7) 0.0287(9) 0.0382(10) 0.0076(6) -0.0026(6) 0.0013(7)
C102 0.0080(6) 0.0386(10) 0.0323(9) 0.0004(6) -0.0018(6) -0.0035(7)
C103 0.0150(7) 0.0483(11) 0.0318(9) -0.0153(7) -0.0056(6) -0.0077(8)
C104 0.0235(8) 0.0398(10) 0.0291(9) -0.0228(7) 0.0032(6) -0.0098(7)
C105 0.0413(9) 0.0310(9) 0.0305(9) -0.0274(8) 0.0049(7) -0.0118(7)
C106 0.0400(9) 0.0157(7) 0.0314(9) -0.0155(7) 0.0081(7) -0.0060(7)
C107 0.0295(8) 0.0186(7) 0.0202(7) -0.0105(6) 0.0046(6) 0.0003(6)
C108 0.0298(8) 0.0225(8) 0.0150(7) -0.0038(6) 0.0006(6) 0.0017(6)
C109 0.0275(8) 0.0308(8) 0.0105(6) -0.0076(6) 0.0010(6) -0.0051(6)
C110 0.0330(9) 0.0478(11) 0.0137(7) -0.0171(8) -0.0008(6) -0.0135(7)
C111 0.0457(10) 0.0494(11) 0.0228(8) -0.0262(9) 0.0068(7) -0.0244(8)
C112 0.0438(10) 0.0369(10) 0.0303(9) -0.0171(8) 0.0158(7) -0.0274(8)
C113 0.0512(11) 0.0234(9) 0.0429(11) -0.0132(8) 0.0203(8) -0.0247(8)
C114 0.0367(9) 0.0183(8) 0.0380(10) 0.0051(7) 0.0155(7) -0.0134(7)
C115 0.0217(7) 0.0278(8) 0.0330(9) 0.0013(6) 0.0139(6) -0.0132(7)
C116 0.0109(6) 0.0347(9) 0.0310(9) -0.0015(6) 0.0077(6) -0.0069(7)
C117 0.0155(7) 0.0332(9) 0.0266(8) -0.0128(6) 0.0076(6) -0.0073(7)
C118 0.0220(7) 0.0261(8) 0.0209(7) -0.0124(6) 0.0083(6) -0.0054(6)
C119 0.0253(7) 0.0298(8) 0.0149(7) -0.0096(6) 0.0084(6) -0.0088(6)
C120 0.0282(8) 0.0309(9) 0.0239(8) -0.0079(6) 0.0145(6) -0.0175(7)
C121 0.0351(9) 0.0310(9) 0.0263(8) -0.0071(7) 0.0023(7) -0.0156(7)
C122 0.0290(8) 0.0280(8) 0.0229(8) -0.0089(7) -0.0009(6) -0.0054(7)
C123 0.0356(9) 0.0276(8) 0.0186(7) -0.0182(7) 0.0012(6) -0.0072(6)
C124 0.0341(8) 0.0258(8) 0.0269(8) -0.0147(7) 0.0067(7) -0.0132(7)
C125 0.0261(8) 0.0254(8) 0.0290(8) -0.0083(6) 0.0014(6) -0.0111(7)
C126 0.0305(8) 0.0345(9) 0.0247(8) -0.0105(7) -0.0019(6) -0.0143(7)
C127 0.0277(8) 0.0175(7) 0.0233(8) -0.0050(6) 0.0009(6) -0.0072(6)
C128 0.0213(7) 0.0226(7) 0.0247(8) -0.0068(6) 0.0018(6) -0.0125(6)
C129 0.0211(7) 0.0209(7) 0.0221(7) -0.0018(6) -0.0025(6) -0.0113(6)
C130 0.0274(7) 0.0191(7) 0.0201(7) -0.0068(6) 0.0014(6) -0.0084(6)
C131 0.0204(7) 0.0292(8) 0.0230(8) -0.0065(6) 0.0018(6) -0.0135(7)
C132 0.0227(7) 0.0233(8) 0.0242(8) -0.0005(6) -0.0029(6) -0.0104(6)
C133 0.0239(7) 0.0195(7) 0.0293(8) -0.0083(6) -0.0001(6) -0.0060(6)
C134 0.0206(7) 0.0191(7) 0.0334(9) -0.0026(6) -0.0015(6) -0.0073(7)
C135 0.0228(7) 0.0263(8) 0.0241(8) -0.0073(6) -0.0013(6) -0.0032(7)
C136 0.0275(8) 0.0287(8) 0.0248(8) -0.0113(6) 0.0099(6) -0.0077(7)
C137 0.0194(7) 0.0234(8) 0.0305(9) -0.0040(6) 0.0080(6) -0.0033(7)
C138 0.0185(7) 0.0232(8) 0.0285(8) -0.0071(6) -0.0010(6) -0.0016(6)
C139 0.0357(9) 0.0260(8) 0.0304(9) -0.0148(7) 0.0098(7) -0.0160(7)
C140 0.0262(8) 0.0280(8) 0.0315(9) -0.0085(6) 0.0048(6) -0.0120(7)
C141 0.0328(9) 0.0357(9) 0.0277(9) -0.0094(7) -0.0018(7) -0.0160(7)
C142 0.0392(9) 0.0293(9) 0.0281(9) -0.0060(7) 0.0010(7) -0.0175(7)
C143 0.0319(8) 0.0258(8) 0.0245(8) -0.0070(7) -0.0017(6) -0.0074(7)
C144 0.0378(9) 0.0288(8) 0.0189(7) -0.0179(7) 0.0034(6) -0.0087(7)
C145 0.0214(8) 0.0320(9) 0.0308(9) -0.0017(7) 0.0093(7) 0.0022(7)
C146 0.0218(8) 0.0283(9) 0.0316(9) -0.0099(6) -0.0017(6) 0.0038(7)
C147 0.0317(9) 0.0241(8) 0.0370(10) -0.0099(7) -0.0042(7) -0.0077(7)
C148 0.0250(8) 0.0237(8) 0.0421(10) -0.0038(6) -0.0042(7) -0.0103(8)
C149 0.0232(8) 0.0276(8) 0.0273(8) -0.0057(6) -0.0005(6) -0.0024(7)
C150 0.0306(8) 0.0358(9) 0.0240(8) -0.0087(7) 0.0113(7) -0.0061(7)
C151 0.0300(8) 0.0202(8) 0.0263(8) -0.0063(6) 0.0012(6) -0.0071(6)
C152 0.0225(7) 0.0268(8) 0.0256(8) -0.0068(6) 0.0014(6) -0.0139(7)
C153 0.0243(7) 0.0237(8) 0.0202(7) -0.0007(6) -0.0036(6) -0.0107(6)
C154 0.0290(8) 0.0203(7) 0.0183(7) -0.0062(6) -0.0002(6) -0.0075(6)
C155 0.0231(7) 0.0273(8) 0.0243(8) -0.0073(6) 0.0006(6) -0.0102(7)
C156 0.0248(8) 0.0246(8) 0.0281(8) -0.0010(6) -0.0038(6) -0.0080(7)
C1A 0.101(8) 0.0055(19) 0.045(5) 0.007(3) -0.051(5) 0.002(3)
C2A 0.061(3) 0.041(3) 0.0149(17) -0.041(3) 0.0008(16) 0.000(2)
C3A 0.0072(13) 0.029(2) 0.0167(15) 0.0028(13) 0.0026(11) -0.0136(15)
C4A 0.0209(16) 0.0201(16) 0.0234(17) -0.0132(14) 0.0012(14) -0.0105(13)
C5A 0.0095(14) 0.042(2) 0.0292(18) -0.0075(14) 0.0070(12) -0.0245(18)
C6A 0.032(2) 0.016(2) 0.034(2) 0.0124(17) -0.0112(16) -0.015(2)
C7A 0.074(5) 0.037(3) 0.0154(18) -0.035(3) -0.004(2) 0.003(2)
C8A 0.058(4) 0.009(2) 0.044(4) 0.019(3) -0.020(3) -0.011(2)
C9A 0.0206(18) 0.064(4) 0.035(2) -0.015(2) 0.0147(16) -0.031(3)
C10A 0.059(3) 0.031(2) 0.033(2) -0.029(2) 0.003(2) -0.0182(19)
C11A 0.050(3) 0.024(2) 0.041(3) 0.011(2) -0.001(2) -0.021(2)
C12A 0.0146(17) 0.070(4) 0.035(2) -0.004(2) 0.0054(16) -0.025(3)
loop_
_atom_type_symbol
_atom_type_description
_atom_type_scat_dispersion_real
_atom_type_scat_dispersion_imag
_atom_type_scat_source
C C 0.0033 0.0016 'International Tables Vol C Tables 4.2.6.8 and 6.1.1.4'
H H 0.0000 0.0000 'International Tables Vol C Tables 4.2.6.8 and 6.1.1.4'
loop_
_geom_angle_atom_site_label_1
_geom_angle_atom_site_label_2
_geom_angle_atom_site_label_3
_geom_angle
C2 C1 C6 120.22(14)
C2 C1 C9 120.07(15)
C6 C1 C9 107.52(14)
C1 C2 C3 120.05(15)
C1 C2 C12 120.19(15)
C3 C2 C12 108.09(14)
C4 C3 C2 119.88(14)
C4 C3 C14 120.13(14)
C2 C3 C14 107.91(14)
C3 C4 C17 120.01(14)
C3 C4 C5 120.12(14)
C17 C4 C5 108.17(13)
C6 C5 C19 120.29(14)
C6 C5 C4 119.96(14)
C19 C5 C4 107.83(13)
C5 C6 C1 119.77(14)
C5 C6 C7 119.77(14)
C1 C6 C7 108.37(13)
C21 C7 C6 119.86(14)
C21 C7 C8 119.79(14)
C6 C7 C8 108.10(14)
C24 C8 C9 120.06(14)
C24 C8 C7 119.97(14)
C9 C8 C7 107.64(13)
C10 C9 C8 119.93(15)
C10 C9 C1 119.78(15)
C8 C9 C1 108.36(14)
C9 C10 C26 119.88(15)
C9 C10 C11 120.24(15)
C26 C10 C11 108.11(14)
C12 C11 C28 120.03(14)
C12 C11 C10 119.91(15)
C28 C11 C10 107.85(14)
C11 C12 C13 119.93(14)
C11 C12 C2 119.81(14)
C13 C12 C2 108.16(14)
C30 C13 C12 120.23(14)
C30 C13 C14 120.09(14)
C12 C13 C14 107.85(14)
C15 C14 C3 120.04(15)
C15 C14 C13 120.08(15)
C3 C14 C13 107.98(13)
C14 C15 C16 119.92(14)
C14 C15 C32 119.81(15)
C16 C15 C32 107.99(14)
C17 C16 C34 119.81(14)
C17 C16 C15 120.21(14)
C34 C16 C15 107.83(13)
C16 C17 C18 120.14(14)
C16 C17 C4 119.70(14)
C18 C17 C4 108.21(13)
C36 C18 C17 120.12(14)
C36 C18 C19 120.24(14)
C17 C18 C19 107.49(13)
C20 C19 C5 120.13(14)
C20 C19 C18 119.65(14)
C5 C19 C18 108.30(13)
C19 C20 C21 119.75(14)
C19 C20 C38 119.87(14)
C21 C20 C38 108.29(14)
C7 C21 C22 120.09(14)
C7 C21 C20 120.19(14)
C22 C21 C20 107.79(13)
C23 C22 C21 119.97(14)
C23 C22 C39 120.06(14)
C21 C22 C39 108.06(13)
C22 C23 C24 120.13(14)
C22 C23 C40 119.80(14)
C24 C23 C40 107.84(14)
C8 C24 C23 120.05(14)
C8 C24 C25 119.86(14)
C23 C24 C25 108.27(14)
C26 C25 C24 120.01(14)
C26 C25 C41 120.02(14)
C24 C25 C41 107.90(14)
C25 C26 C10 120.25(14)
C25 C26 C27 119.88(14)
C10 C26 C27 107.93(13)
C43 C27 C26 120.12(14)
C43 C27 C28 119.96(14)
C26 C27 C28 107.99(13)
C29 C28 C11 119.91(14)
C29 C28 C27 119.92(14)
C11 C28 C27 108.11(13)
C28 C29 C45 120.10(14)
C28 C29 C30 119.96(14)
C45 C29 C30 107.81(13)
C13 C30 C29 119.93(14)
C13 C30 C31 119.91(14)
C29 C30 C31 108.02(14)
C32 C31 C46 120.03(14)
C32 C31 C30 119.87(14)
C46 C31 C30 108.06(13)
C31 C32 C33 120.19(14)
C31 C32 C15 120.24(14)
C33 C32 C15 107.82(14)
C48 C33 C32 120.04(14)
C48 C33 C34 119.77(15)
C32 C33 C34 108.27(14)
C35 C34 C33 119.74(14)
C35 C34 C16 119.95(14)
C33 C34 C16 108.08(14)
C34 C35 C36 120.02(14)
C34 C35 C50 120.34(14)
C36 C35 C50 107.75(14)
C18 C36 C35 119.96(14)
C18 C36 C37 119.88(14)
C35 C36 C37 107.99(14)
C38 C37 C51 119.86(14)
C38 C37 C36 119.89(14)
C51 C37 C36 108.17(14)
C37 C38 C39 120.27(14)
C37 C38 C20 120.46(14)
C39 C38 C20 107.68(14)
C53 C39 C38 119.93(14)
C53 C39 C22 120.00(14)
C38 C39 C22 108.19(14)
C54 C40 C41 120.08(14)
C54 C40 C23 120.08(14)
C41 C40 C23 107.92(14)
C42 C41 C40 120.16(14)
C42 C41 C25 119.95(14)
C40 C41 C25 108.06(13)
C41 C42 C43 119.84(14)
C41 C42 C56 119.81(14)
C43 C42 C56 108.24(13)
C27 C43 C42 120.19(14)
C27 C43 C44 120.03(14)
C42 C43 C44 107.79(13)
C45 C44 C57 120.21(14)
C45 C44 C43 119.95(14)
C57 C44 C43 108.01(13)
C44 C45 C29 120.02(14)
C44 C45 C46 119.72(14)
C29 C45 C46 108.33(13)
C47 C46 C31 120.02(14)
C47 C46 C45 120.16(14)
C31 C46 C45 107.79(13)
C46 C47 C58 120.11(14)
C46 C47 C48 119.75(14)
C58 C47 C48 108.08(14)
C33 C48 C49 120.51(14)
C33 C48 C47 119.96(14)
C49 C48 C47 107.47(13)
C50 C49 C48 119.79(15)
C50 C49 C59 119.99(15)
C48 C49 C59 108.54(14)
C49 C50 C51 119.81(15)
C49 C50 C35 119.84(15)
C51 C50 C35 108.30(13)
C52 C51 C50 120.51(14)
C52 C51 C37 119.72(14)
C50 C51 C37 107.78(14)
C51 C52 C53 120.19(14)
C51 C52 C60 119.52(14)
C53 C52 C60 108.20(14)
C39 C53 C52 120.03(14)
C39 C53 C54 120.01(14)
C52 C53 C54 107.88(14)
C40 C54 C55 120.04(15)
C40 C54 C53 120.05(15)
C55 C54 C53 108.11(14)
C56 C55 C60 120.13(14)
C56 C55 C54 119.97(14)
C60 C55 C54 107.70(14)
C55 C56 C42 119.94(14)
C55 C56 C57 120.04(14)
C42 C56 C57 108.18(13)
C58 C57 C56 119.79(14)
C58 C57 C44 120.25(13)
C56 C57 C44 107.78(13)
C57 C58 C59 119.86(14)
C57 C58 C47 119.55(14)
C59 C58 C47 108.53(13)
C60 C59 C58 120.52(14)
C60 C59 C49 119.97(14)
C58 C59 C49 107.37(14)
C59 C60 C55 119.66(14)
C59 C60 C52 120.19(14)
C55 C60 C52 108.11(14)
C62 C61 C66 120.25(14)
C62 C61 C69 119.57(15)
C66 C61 C69 108.27(14)
C61 C62 C63 120.01(15)
C61 C62 C72 120.00(15)
C63 C62 C72 107.68(15)
C64 C63 C74 120.20(16)
C64 C63 C62 119.67(15)
C74 C63 C62 107.93(16)
C63 C64 C65 120.42(15)
C63 C64 C77 119.79(16)
C65 C64 C77 107.96(16)
C66 C65 C64 119.91(16)
C66 C65 C79 119.60(15)
C64 C65 C79 108.25(15)
C65 C66 C61 119.74(15)
C65 C66 C67 120.22(15)
C61 C66 C67 108.28(13)
C81 C67 C66 119.71(15)
C81 C67 C68 120.46(15)
C66 C67 C68 107.49(14)
C84 C68 C69 120.41(15)
C84 C68 C67 119.54(16)
C69 C68 C67 108.33(14)
C70 C69 C68 120.21(15)
C70 C69 C61 119.79(15)
C68 C69 C61 107.62(13)
C69 C70 C71 120.70(15)
C69 C70 C86 119.51(16)
C71 C70 C86 107.96(15)
C72 C71 C70 119.85(16)
C72 C71 C88 120.53(16)
C70 C71 C88 108.03(16)
C71 C72 C62 120.08(16)
C71 C72 C73 119.82(16)
C62 C72 C73 108.03(15)
C90 C73 C74 120.13(17)
C90 C73 C72 119.70(17)
C74 C73 C72 107.75(16)
C75 C74 C73 119.93(17)
C75 C74 C63 119.90(18)
C73 C74 C63 108.61(15)
C74 C75 C76 119.93(17)
C74 C75 C92 120.19(18)
C76 C75 C92 107.92(15)
C77 C76 C75 120.11(16)
C77 C76 C94 119.43(17)
C75 C76 C94 108.51(15)
C76 C77 C78 119.65(16)
C76 C77 C64 120.06(17)
C78 C77 C64 108.25(15)
C96 C78 C77 120.55(16)
C96 C78 C79 119.71(17)
C77 C78 C79 107.70(15)
C80 C79 C65 119.98(15)
C80 C79 C78 120.32(16)
C65 C79 C78 107.84(16)
C79 C80 C81 120.54(16)
C79 C80 C98 119.83(16)
C81 C80 C98 107.68(16)
C67 C81 C80 119.95(16)
C67 C81 C82 119.87(15)
C80 C81 C82 108.11(15)
C83 C82 C99 120.42(16)
C83 C82 C81 119.48(17)
C99 C82 C81 107.90(16)
C82 C83 C84 120.36(15)
C82 C83 C100 119.32(17)
C84 C83 C100 108.29(16)
C68 C84 C83 120.29(15)
C68 C84 C85 119.41(16)
C83 C84 C85 108.22(15)
C86 C85 C84 120.55(15)
C86 C85 C101 120.26(15)
C84 C85 C101 107.15(16)
C85 C86 C87 120.29(16)
C85 C86 C70 119.90(15)
C87 C86 C70 107.75(16)
C103 C87 C86 119.79(17)
C103 C87 C88 119.97(16)
C86 C87 C88 108.33(15)
C89 C88 C87 120.51(16)
C89 C88 C71 119.39(17)
C87 C88 C71 107.94(15)
C88 C89 C90 120.75(17)
C88 C89 C105 119.60(17)
C90 C89 C105 107.83(15)
C73 C90 C89 119.82(17)
C73 C90 C91 119.83(17)
C89 C90 C91 108.43(15)
C92 C91 C90 120.25(16)
C92 C91 C106 119.63(16)
C90 C91 C106 107.74(16)
C91 C92 C93 120.18(15)
C91 C92 C75 119.66(16)
C93 C92 C75 108.24(16)
C108 C93 C92 120.15(15)
C108 C93 C94 119.76(16)
C92 C93 C94 107.99(15)
C95 C94 C93 120.22(15)
C95 C94 C76 120.40(16)
C93 C94 C76 107.33(16)
C94 C95 C96 120.26(16)
C94 C95 C110 120.03(15)
C96 C95 C110 107.46(16)
C78 C96 C97 119.85(16)
C78 C96 C95 119.70(18)
C97 C96 C95 108.46(15)
C98 C97 C96 120.90(16)
C98 C97 C111 119.27(17)
C96 C97 C111 107.74(16)
C97 C98 C99 120.91(16)
C97 C98 C80 119.40(17)
C99 C98 C80 107.90(16)
C113 C99 C98 119.91(17)
C113 C99 C82 119.73(17)
C98 C99 C82 108.41(15)
C114 C100 C101 119.91(16)
C114 C100 C83 120.20(17)
C101 C100 C83 107.76(16)
C102 C101 C100 120.17(17)
C102 C101 C85 119.33(17)
C100 C101 C85 108.57(15)
C101 C102 C103 119.73(16)
C101 C102 C116 120.09(17)
C103 C102 C116 108.11(14)
C87 C103 C102 120.61(16)
C87 C103 C104 119.63(17)
C102 C103 C104 107.91(15)
C105 C104 C117 120.12(15)
C105 C104 C103 120.20(16)
C117 C104 C103 107.65(15)
C104 C105 C106 120.41(15)
C104 C105 C89 120.08(16)
C106 C105 C89 107.70(15)
C107 C106 C105 119.84(15)
C107 C106 C91 120.10(15)
C105 C106 C91 108.30(15)
C106 C107 C118 120.09(14)
C106 C107 C108 120.29(15)
C118 C107 C108 107.54(14)
C93 C108 C109 120.13(15)
C93 C108 C107 119.63(15)
C109 C108 C107 108.31(13)
C110 C109 C108 120.55(15)
C110 C109 C119 119.72(14)
C108 C109 C119 107.68(13)
C109 C110 C111 120.41(15)
C109 C110 C95 119.30(16)
C111 C110 C95 108.41(15)
C112 C111 C110 120.19(15)
C112 C111 C97 119.96(16)
C110 C111 C97 107.93(16)
C111 C112 C120 120.13(15)
C111 C112 C113 120.36(16)
C120 C112 C113 107.92(15)
C99 C113 C114 120.24(17)
C99 C113 C112 119.60(17)
C114 C113 C112 108.12(15)
C100 C114 C113 120.10(16)
C100 C114 C115 120.09(17)
C113 C114 C115 107.91(15)
C116 C115 C120 119.74(14)
C116 C115 C114 119.84(16)
C120 C115 C114 108.01(15)
C115 C116 C117 120.07(14)
C115 C116 C102 119.90(15)
C117 C116 C102 108.17(15)
C118 C117 C116 120.03(15)
C118 C117 C104 119.60(15)
C116 C117 C104 108.16(14)
C117 C118 C119 119.77(14)
C117 C118 C107 119.95(15)
C119 C118 C107 108.35(13)
C120 C119 C118 120.15(14)
C120 C119 C109 119.73(14)
C118 C119 C109 108.12(13)
C119 C120 C115 120.24(15)
C119 C120 C112 119.82(14)
C115 C120 C112 108.05(14)
C126 C121 C122 119.97(15)
C123 C122 C121 119.72(15)
C124 C123 C122 120.23(14)
C123 C124 C125 120.09(15)
C124 C125 C126 119.93(15)
C125 C126 C121 120.05(14)
C132 C127 C128 119.99(14)
C129 C128 C127 119.72(14)
C128 C129 C130 120.16(13)
C129 C130 C131 120.16(14)
C132 C131 C130 119.56(14)
C127 C132 C131 120.40(14)
C134 C133 C138 119.87(16)
C135 C134 C133 120.08(14)
C134 C135 C136 120.01(14)
C135 C136 C137 119.85(16)
C138 C137 C136 120.04(14)
C137 C138 C133 120.14(14)
C144 C139 C140 119.93(15)
C141 C140 C139 119.81(15)
C142 C141 C140 119.85(15)
C141 C142 C143 120.52(15)
C142 C143 C144 119.36(15)
C139 C144 C143 120.51(14)
C146 C145 C150 119.93(16)
C145 C146 C147 120.16(15)
C148 C147 C146 119.70(17)
C149 C148 C147 120.15(16)
C150 C149 C148 119.94(15)
C149 C150 C145 120.12(17)
C152 C151 C156 119.97(15)
C151 C152 C153 119.83(14)
C154 C153 C152 119.99(13)
C153 C154 C155 120.39(14)
C156 C155 C154 119.42(14)
C155 C156 C151 120.39(14)
C6A C1A C2A 120.4(8)
C3A C2A C1A 118.7(6)
C4A C3A C2A 120.0(3)
C3A C4A C5A 120.9(3)
C4A C5A C6A 119.6(3)
C1A C6A C5A 120.4(6)
C8A C7A C12A 118.5(4)
C7A C8A C9A 121.0(4)
C10A C9A C8A 118.0(4)
C11A C10A C9A 120.7(4)
C10A C11A C12A 122.0(3)
C11A C12A C7A 119.6(4)
C2B C1B C6B 119.8(9)
C1B C2B C3B 118.9(7)
C4B C3B C2B 121.4(5)
C5B C4B C3B 121.2(5)
C4B C5B C6B 120.9(5)
C5B C6B C1B 117.7(6)
C8B C7B C12B 118.9(6)
C9B C8B C7B 120.3(5)
C8B C9B C10B 120.9(5)
C9B C10B C11B 120.6(5)
C12B C11B C10B 117.2(6)
C11B C12B C7B 122.2(6)
loop_
_geom_bond_atom_site_label_1
_geom_bond_atom_site_label_2
_geom_bond_distance
C1 C2 1.387(2)
C1 C6 1.450(2)
C1 C9 1.456(2)
C2 C3 1.450(2)
C2 C12 1.452(2)
C3 C4 1.387(2)
C3 C14 1.451(2)
C4 C17 1.451(2)
C4 C5 1.453(2)
C5 C6 1.390(2)
C5 C19 1.448(2)
C6 C7 1.450(2)
C7 C21 1.392(2)
C7 C8 1.454(2)
C8 C24 1.391(2)
C8 C9 1.453(2)
C9 C10 1.387(2)
C10 C26 1.450(2)
C10 C11 1.453(2)
C11 C12 1.394(2)
C11 C28 1.449(2)
C12 C13 1.446(2)
C13 C30 1.389(2)
C13 C14 1.458(2)
C14 C15 1.383(2)
C15 C16 1.452(2)
C15 C32 1.458(2)
C16 C17 1.390(2)
C16 C34 1.452(2)
C17 C18 1.451(2)
C18 C36 1.384(2)
C18 C19 1.461(2)
C19 C20 1.386(2)
C20 C21 1.452(2)
C20 C38 1.454(2)
C21 C22 1.449(2)
C22 C23 1.390(2)
C22 C39 1.454(2)
C23 C24 1.446(2)
C23 C40 1.457(2)
C24 C25 1.449(2)
C25 C26 1.387(2)
C25 C41 1.453(2)
C26 C27 1.451(2)
C27 C43 1.385(2)
C27 C28 1.452(2)
C28 C29 1.393(2)
C29 C45 1.448(2)
C29 C30 1.452(2)
C30 C31 1.455(2)
C31 C32 1.388(2)
C31 C46 1.448(2)
C32 C33 1.446(2)
C33 C48 1.391(2)
C33 C34 1.451(2)
C34 C35 1.392(2)
C35 C36 1.452(2)
C35 C50 1.456(2)
C36 C37 1.454(2)
C37 C38 1.382(2)
C37 C51 1.453(2)
C38 C39 1.448(2)
C39 C53 1.386(2)
C40 C54 1.384(2)
C40 C41 1.447(2)
C41 C42 1.392(2)
C42 C43 1.447(2)
C42 C56 1.450(2)
C43 C44 1.458(2)
C44 C45 1.387(2)
C44 C57 1.454(2)
C45 C46 1.454(2)
C46 C47 1.395(2)
C47 C58 1.452(2)
C47 C48 1.453(2)
C48 C49 1.453(2)
C49 C50 1.386(2)
C49 C59 1.457(2)
C50 C51 1.450(2)
C51 C52 1.391(2)
C52 C53 1.443(2)
C52 C60 1.453(2)
C53 C54 1.457(2)
C54 C55 1.452(2)
C55 C56 1.390(2)
C55 C60 1.451(2)
C56 C57 1.451(2)
C57 C58 1.394(2)
C58 C59 1.446(2)
C59 C60 1.386(2)
C61 C62 1.388(2)
C61 C66 1.448(2)
C61 C69 1.452(2)
C62 C63 1.455(2)
C62 C72 1.457(2)
C63 C64 1.386(3)
C63 C74 1.452(2)
C64 C65 1.448(2)
C64 C77 1.450(2)
C65 C66 1.395(2)
C65 C79 1.449(2)
C66 C67 1.451(2)
C67 C81 1.386(2)
C67 C68 1.458(2)
C68 C84 1.385(2)
C68 C69 1.452(2)
C69 C70 1.386(2)
C70 C71 1.439(2)
C70 C86 1.465(2)
C71 C72 1.380(2)
C71 C88 1.457(2)
C72 C73 1.460(2)
C73 C90 1.396(3)
C73 C74 1.442(3)
C74 C75 1.398(2)
C75 C76 1.438(3)
C75 C92 1.448(2)
C76 C77 1.399(2)
C76 C94 1.457(2)
C77 C78 1.450(3)
C78 C96 1.390(2)
C78 C79 1.460(2)
C79 C80 1.381(2)
C80 C81 1.447(2)
C80 C98 1.467(2)
C81 C82 1.453(2)
C82 C83 1.399(3)
C82 C99 1.452(3)
C83 C84 1.443(3)
C83 C100 1.456(2)
C84 C85 1.457(2)
C85 C86 1.380(3)
C85 C101 1.462(2)
C86 C87 1.442(2)
C87 C103 1.387(2)
C87 C88 1.446(3)
C88 C89 1.384(2)
C89 C90 1.445(3)
C89 C105 1.459(2)
C90 C91 1.449(2)
C91 C92 1.394(3)
C91 C106 1.450(2)
C92 C93 1.448(2)
C93 C108 1.384(2)
C93 C94 1.452(2)
C94 C95 1.382(3)
C95 C96 1.446(3)
C95 C110 1.461(2)
C96 C97 1.445(3)
C97 C98 1.383(3)
C97 C111 1.462(2)
C98 C99 1.439(3)
C99 C113 1.392(2)
C100 C114 1.392(3)
C100 C101 1.439(3)
C101 C102 1.394(2)
C102 C103 1.447(3)
C102 C116 1.449(2)
C103 C104 1.461(2)
C104 C105 1.375(2)
C104 C117 1.450(2)
C105 C106 1.449(2)
C106 C107 1.381(2)
C107 C118 1.449(2)
C107 C108 1.458(2)
C108 C109 1.446(2)
C109 C110 1.385(2)
C109 C119 1.456(2)
C110 C111 1.434(3)
C111 C112 1.379(2)
C112 C120 1.452(2)
C112 C113 1.453(3)
C113 C114 1.448(3)
C114 C115 1.456(2)
C115 C116 1.388(2)
C115 C120 1.449(2)
C116 C117 1.448(2)
C117 C118 1.393(2)
C118 C119 1.445(2)
C119 C120 1.385(2)
C121 C126 1.388(2)
C121 C122 1.389(2)
C122 C123 1.385(2)
C123 C124 1.384(2)
C124 C125 1.385(2)
C125 C126 1.385(2)
C127 C132 1.387(2)
C127 C128 1.393(2)
C128 C129 1.389(2)
C129 C130 1.389(2)
C130 C131 1.392(2)
C131 C132 1.389(2)
C133 C134 1.388(2)
C133 C138 1.391(2)
C134 C135 1.387(2)
C135 C136 1.389(2)
C136 C137 1.394(2)
C137 C138 1.381(2)
C139 C144 1.383(2)
C139 C140 1.389(2)
C140 C141 1.389(2)
C141 C142 1.385(2)
C142 C143 1.386(2)
C143 C144 1.387(2)
C145 C146 1.383(3)
C145 C150 1.393(2)
C146 C147 1.391(2)
C147 C148 1.390(2)
C148 C149 1.389(2)
C149 C150 1.382(2)
C151 C152 1.387(2)
C151 C156 1.391(2)
C152 C153 1.390(2)
C153 C154 1.385(2)
C154 C155 1.392(2)
C155 C156 1.385(2)
C1A C6A 1.310(12)
C1A C2A 1.441(13)
C2A C3A 1.387(6)
C3A C4A 1.356(5)
C4A C5A 1.377(5)
C5A C6A 1.415(6)
C7A C8A 1.385(8)
C7A C12A 1.390(7)
C8A C9A 1.396(8)
C9A C10A 1.375(7)
C10A C11A 1.351(7)
C11A C12A 1.355(7)
C1B C2B 1.338(11)
C1B C6B 1.466(12)
C2B C3B 1.374(6)
C3B C4B 1.357(6)
C4B C5B 1.332(7)
C5B C6B 1.358(6)
C7B C8B 1.358(6)
C7B C12B 1.383(6)
C8B C9B 1.356(6)
C9B C10B 1.363(6)
C10B C11B 1.389(8)
C11B C12B 1.368(7)
