#------------------------------------------------------------------------------
#$Date: 2016-02-19 16:29:56 +0200 (Fri, 19 Feb 2016) $
#$Revision: 176759 $
#$URL: svn://www.crystallography.net/cod/cif/2/00/17/2001731.cif $
#------------------------------------------------------------------------------
#
# This file is available in the Crystallography Open Database (COD),
# http://www.crystallography.net/. The original data for this entry
# were provided by IUCr Journals, http://journals.iucr.org/.
#
# The file may be used within the scientific community so long as
# proper attribution is given to the journal article from which the
# data were obtained.
#
data_2001731
loop_
_publ_author_name
'Zhang, D.'
'Xu, Y.'
'Koh, L. L.'
'Lam, Y. L.'
'Huang, H. H.'
_publ_section_title
;
 Structures of 1,1'-diphenyl-1,1'-bicyclopentyl,
 1,1'-diphenyl-1,1'-bicyclohexyl and 1,1'-diphenyl-1,1'-bicycloheptyl
;
_journal_issue                   5
_journal_name_full               'Acta Crystallographica Section C'
_journal_page_first              1002
_journal_page_last               1007
_journal_paper_doi               10.1107/S0108270192011314
_journal_volume                  49
_journal_year                    1993
_chemical_formula_sum            'C24 H30'
_chemical_formula_weight         318.5
_symmetry_cell_setting           monoclinic
_symmetry_space_group_name_Hall  '-C 2yc'
_symmetry_space_group_name_H-M   'C 1 2/c 1'
_atom_type_scat_source           IntTabIV
_cell_angle_alpha                90
_cell_angle_beta                 102.29(5)
_cell_angle_gamma                90
_cell_formula_units_Z            4
_cell_length_a                   17.306(9)
_cell_length_b                   6.499(3)
_cell_length_c                   16.596(11)
_cell_measurement_reflns_used    17
_cell_measurement_temperature    298
_cell_measurement_theta_max      9.925
_cell_measurement_theta_min      3.48
_cell_volume                     1823.8(18)
_diffrn_measurement_device       'Siemens R3m/V'
_diffrn_measurement_method       \w
_diffrn_radiation_type           MoK\a
_diffrn_radiation_wavelength     0.71073
_diffrn_reflns_av_R_equivalents  0.0157
_diffrn_reflns_limit_h_max       20
_diffrn_reflns_limit_h_min       0
_diffrn_reflns_limit_k_max       7
_diffrn_reflns_limit_k_min       0
_diffrn_reflns_limit_l_max       18
_diffrn_reflns_limit_l_min       -19
_diffrn_reflns_number            1664
_diffrn_reflns_theta_max         25.0
_diffrn_standards_decay_%        +-1.5
_diffrn_standards_interval_count 97
_diffrn_standards_number         3
_exptl_absorpt_coefficient_mu    0.065
_exptl_absorpt_correction_type   none
_exptl_crystal_colour            colourless
_exptl_crystal_density_diffrn    1.160
_exptl_crystal_description       plate
_exptl_crystal_size_max          0.4
_exptl_crystal_size_mid          0.4
_exptl_crystal_size_min          0.05
_refine_diff_density_max         0.12
_refine_diff_density_min         -0.10
_refine_ls_goodness_of_fit_obs   0.64
_refine_ls_hydrogen_treatment    noref
_refine_ls_number_parameters     110
_refine_ls_number_reflns         656
_refine_ls_R_factor_obs          0.0368
_refine_ls_shift/esd_max         0.001
_refine_ls_structure_factor_coef F
_refine_ls_weighting_details     'w = 1/[\s^2^(F)+0.0023F^2^]'
_refine_ls_weighting_scheme      calc
_refine_ls_wR_factor_obs         0.0438
_reflns_number_observed          656
_reflns_number_total             1609
_reflns_observed_criterion       I>2\s(I)
_cod_data_source_file            ab1030.cif
_cod_data_source_block           ab1030_structure_2_of_3
_cod_depositor_comments
;
The following automatic conversions were performed:

'_refine_ls_weighting_scheme' value '1/[\s^2^(F)+0.0023F^2^]' was
changed to 'calc'. New tag '_refine_ls_weighting_details' was
created. The value of the new tag was set to 'w =
1/[\s^2^(F)+0.0023F^2^]'.

Automatic conversion script
Id: cif_fix_values 3143 2015-03-26 13:38:13Z robertas 
;
_cod_original_cell_volume        1824(2)
_cod_database_code               2001731
loop_
_atom_site_label
_atom_site_fract_x
_atom_site_fract_y
_atom_site_fract_z
_atom_site_U_iso_or_equiv
C(1) -.2029(2) -.2289(5) .0047(2) .0380(10)
C(2) -.1805(2) -.0126(5) .0407(2) .0450(10)
C(3) -.0912(2) .0307(5) .0573(2) .0530(10)
C(4) -.0456(2) -.1274(6) .1166(2) .0590(10)
C(5) -.0656(2) -.3441(5) .0851(2) .0570(10)
C(6) -.1549(2) -.3816(5) .0676(2) .0480(10)
C(11) -.1805(2) -.2516(5) -.0801(2) .0420(10)
C(12) -.1540(2) -.4372(5) -.1067(2) .0530(10)
C(13) -.1339(2) -.4565(7) -.1830(2) .069
C(14) -.1399(2) -.2898(6) -.2346(2) .075(2)
C(15) -.1664(2) -.1042(7) -.2112(2) .0640(10)
C(16) -.1857(2) -.0858(5) -.1348(2) .0510(10)
H(2A) -.1965 -.0003 .0924 .080
H(2B) -.2088 .0890 .0040 .080
H(3A) -.0805 .1675 .0786 .080
H(3B) -.0744 .0215 .0058 .080
H(4A) -.0599 -.1121 .1691 .080
H(4B) .0102 -.1038 .1240 .080
H(5A) -.0392 -.4431 .1244 .080
H(5B) -.0476 -.3625 .0347 .080
H(6A) -.1664 -.5202 .0486 .080
H(6B) -.1719 -.3666 .1187 .080
H(12A) -.1485 -.5532 -.0702 .080
H(13A) -.1168 -.5867 -.2002 .080
H(14A) -.1255 -.3021 -.2872 .080
H(15A) -.1713 .0124 -.2475 .080
H(16A) -.2032 .0446 -.1182 .080
loop_
_geom_angle_atom_site_label_1
_geom_angle_atom_site_label_2
_geom_angle_atom_site_label_3
_geom_angle
_geom_angle_publ_flag
C(2) C(1) C(6) 105.5(2) yes
C(6) C(1) C(11) 110.5(2) yes
C(6) C(1) C(1A) 109.8(3) yes
C(1) C(2) C(3) 113.3(2) yes
C(3) C(4) C(5) 110.8(2) yes
C(1) C(6) C(5) 113.6(3) yes
C(1) C(11) C(16) 121.6(3) yes
C(11) C(12) C(13) 122.0(3) yes
C(13) C(14) C(15) 120.2(4) yes
C(11) C(16) C(15) 122.2(3) yes
C(2) C(1) C(11) 110.4(3) yes
C(2) C(1) C(1A) 110.7(3) yes
C(11) C(1) C(1A) 109.8(2) yes
C(2) C(3) C(4) 110.8(3) yes
C(4) C(5) C(6) 111.2(3) yes
C(1) C(11) C(12) 122.3(3) yes
C(12) C(11) C(16) 116.1(3) yes
C(12) C(13) C(14) 119.9(4) yes
C(14) C(15) C(16) 119.6(4) yes
loop_
_geom_bond_atom_site_label_1
_geom_bond_atom_site_label_2
_geom_bond_distance
_geom_bond_publ_flag
C(1) C(2) 1.545(4) yes
C(1) C(11) 1.544(4) yes
C(2) C(3) 1.537(4) yes
C(4) C(5) 1.516(5) yes
C(11) C(12) 1.396(5) yes
C(12) C(13) 1.388(5) yes
C(14) C(15) 1.376(6) yes
C(1) C(6) 1.550(4) yes
C(1) C(1A) 1.627(5) yes
C(3) C(4) 1.521(5) yes
C(5) C(6) 1.529(4) yes
C(11) C(16) 1.399(5) yes
C(13) C(14) 1.371(6) yes
C(15) C(16) 1.384(5) yes
loop_
_geom_torsion_atom_site_label_1
_geom_torsion_atom_site_label_2
_geom_torsion_atom_site_label_3
_geom_torsion_atom_site_label_4
_geom_torsion
C(11) C(1) C(1A) C(2A) 57.9(2)
C(11) C(1) C(1A) C(6A) -58.3(2)
