#------------------------------------------------------------------------------
#$Date: 2015-09-05 23:34:09 +0300 (Sat, 05 Sep 2015) $
#$Revision: 154543 $
#$URL: svn://www.crystallography.net/cod/cif/4/51/33/4513313.cif $
#------------------------------------------------------------------------------
#
# This file is available in the Crystallography Open Database (COD),
# http://www.crystallography.net/
#
# All data on this site have been placed in the public domain by the
# contributors.
#
data_4513313
loop_
_publ_author_name
'Lusi, Matteo'
'Vitorica-Yrezabal, Inigo J.'
'Zaworotko, Michael J.'
_publ_section_title
;
 Expanding the Scope of Molecular Mixed Crystals Enabled by Three
 Component Solid Solutions
;
_journal_issue                   8
_journal_name_full               'Crystal Growth &amp; Design'
_journal_page_first              4098
_journal_paper_doi               10.1021/acs.cgd.5b00685
_journal_volume                  15
_journal_year                    2015
_chemical_formula_sum            'C7 H5'
_chemical_formula_weight         89.11
_chemical_name_systematic
;
 ?
;
_space_group_crystal_system      monoclinic
_space_group_IT_number           14
_space_group_name_Hall           '-P 2ybc'
_space_group_name_H-M_alt        'P 1 21/c 1'
_symmetry_space_group_name_Hall  '-P 2ybc'
_symmetry_space_group_name_H-M   'P 1 21/c 1'
_atom_sites_solution_hydrogens   geom
_audit_creation_method           SHELXL-2014
_cell_angle_alpha                90
_cell_angle_beta                 102.608(14)
_cell_angle_gamma                90
_cell_formula_units_Z            4
_cell_length_a                   9.2627(11)
_cell_length_b                   5.9923(6)
_cell_length_c                   8.4088(12)
_cell_measurement_temperature    100(2)
_cell_volume                     455.47(10)
_computing_structure_refinement  'SHELXL-2014 (Sheldrick, 2014)'
_diffrn_ambient_temperature      100(2)
_diffrn_measured_fraction_theta_full 0.993
_diffrn_measured_fraction_theta_max 0.870
_diffrn_radiation_type           MoK\a
_diffrn_radiation_wavelength     0.71073
_diffrn_reflns_av_R_equivalents  0.0369
_diffrn_reflns_av_unetI/netI     0.0781
_diffrn_reflns_laue_measured_fraction_full 0.993
_diffrn_reflns_laue_measured_fraction_max 0.870
_diffrn_reflns_limit_h_max       12
_diffrn_reflns_limit_h_min       -4
_diffrn_reflns_limit_k_max       7
_diffrn_reflns_limit_k_min       -7
_diffrn_reflns_limit_l_max       10
_diffrn_reflns_limit_l_min       -11
_diffrn_reflns_number            1685
_diffrn_reflns_point_group_measured_fraction_full 0.993
_diffrn_reflns_point_group_measured_fraction_max 0.870
_diffrn_reflns_theta_full        25.242
_diffrn_reflns_theta_max         28.758
_diffrn_reflns_theta_min         4.080
_exptl_absorpt_coefficient_mu    0.073
_exptl_absorpt_correction_T_max  1.08
_exptl_absorpt_correction_T_min  0.88
_exptl_absorpt_correction_type   multi-scan
_exptl_absorpt_process_details   sadabs
_exptl_crystal_colour            colourless
_exptl_crystal_density_diffrn    1.299
_exptl_crystal_description       prism
_exptl_crystal_F_000             188
_refine_diff_density_max         0.298
_refine_diff_density_min         -0.266
_refine_diff_density_rms         0.055
_refine_ls_extinction_method     none
_refine_ls_goodness_of_fit_ref   1.096
_refine_ls_hydrogen_treatment    constr
_refine_ls_matrix_type           full
_refine_ls_number_parameters     64
_refine_ls_number_reflns         1026
_refine_ls_number_restraints     0
_refine_ls_restrained_S_all      1.096
_refine_ls_R_factor_all          0.0869
_refine_ls_R_factor_gt           0.0628
_refine_ls_shift/su_max          0.000
_refine_ls_shift/su_mean         0.000
_refine_ls_structure_factor_coef Fsqd
_refine_ls_weighting_details
'w=1/[\s^2^(Fo^2^)+(0.0445P)^2^+0.1408P] where P=(Fo^2^+2Fc^2^)/3'
_refine_ls_weighting_scheme      calc
_refine_ls_wR_factor_gt          0.1240
_refine_ls_wR_factor_ref         0.1487
_reflns_Friedel_coverage         0.000
_reflns_number_gt                740
_reflns_number_total             1026
_reflns_threshold_expression     'I > 2\s(I)'
_cod_data_source_file            cg5b00685_si_018.cif
_cod_data_source_block           H:\#17
_cod_depositor_comments
'Adding full bibliography for 4513301--4513322.cif.'
_cod_database_code               4513313
_shelx_space_group_comment
;
The symmetry employed for this shelxl refinement is uniquely defined
by the following loop, which should always be used as a source of
symmetry information in preference to the above space-group names.
They are only intended as comments.
;
_shelxl_version_number           2014-3
_shelx_res_file
;
TITL CF solution in P21/c
CELL 0.71073 9.2627 5.9923 8.4088 90.000 102.608 90.000
ZERR 4.0000 0.0011 0.0006 0.0012 0.000 0.014 0.000
LATT 1
SYMM -X, 0.5+Y, 0.5-Z
SFAC C H
UNIT 28 20
MERG 2
FMAP 2
GRID
PLAN 5
TEMP -173
BOND
L.S. 20
ACTA
WGHT    0.044500    0.140800
FVAR      21.65981
C1    1    0.450877    0.211444    0.537970    11.00000    0.01794    0.01256 =
         0.01850    0.00130    0.00743    0.00067
AFIX  43
H1    2    0.417806    0.354435    0.563434    11.00000   -1.20000
AFIX   0
C2    1    0.589549    0.134848    0.620472    11.00000    0.01749    0.01627 =
         0.01566    0.00089    0.00556   -0.00117
C3    1    0.683232    0.263989    0.743683    11.00000    0.01907    0.01813 =
         0.02010   -0.00100    0.00684   -0.00402
AFIX  43
H3    2    0.651326    0.406761    0.771165    11.00000   -1.20000
AFIX   0
C4    1    0.817682    0.185528    0.822417    11.00000    0.02063    0.02373 =
         0.01757   -0.00149    0.00229   -0.00464
AFIX  43
H4    2    0.878137    0.273291    0.904988    11.00000   -1.20000
AFIX   0
C5    1    0.360108    0.081667    0.418855    11.00000    0.01592    0.01720 =
         0.01549    0.00189    0.00622   -0.00013
C6    1    0.217339    0.155695    0.334385    11.00000    0.01854    0.01870 =
         0.02156    0.00359    0.00619    0.00269
AFIX  43
H6    2    0.181648    0.296965    0.359815    11.00000   -1.20000
AFIX   0
C7    1    0.131663    0.025630    0.217536    11.00000    0.01752    0.02405 =
         0.02270    0.00234    0.00335    0.00029
AFIX  43
H7    2    0.036995    0.077387    0.162416    11.00000   -1.20000
AFIX   0
HKLF 4

REM  CF solution in P21/c
REM R1 =  0.0628 for     740 Fo > 4sig(Fo)  and  0.0869 for all    1026 data
REM     64 parameters refined using      0 restraints

END

WGHT      0.0446      0.1410

REM Highest difference peak  0.298,  deepest hole -0.266,  1-sigma level  0.055
Q1    1   0.6022  0.0020  0.6465  11.00000  0.05    0.30
Q2    1   0.3635 -0.0362  0.4327  11.00000  0.05    0.24
Q3    1   0.1623  0.0634  0.3216  11.00000  0.05    0.22
Q4    1   0.6206  0.1733  0.7044  11.00000  0.05    0.21
Q5    1   0.3064  0.1104  0.3586  11.00000  0.05    0.20
;
_shelx_res_checksum              35657
_shelx_hkl_file
;
  -2   0   0 236230. 5010.63   1
  -2   0   0 235940. 4943.11   3
   2   0   0 238058. 4904.73   1
   2   0   0 231863. 4897.24   3
   3   0   0 120325. 4398.18   3
   3   0   0 114733. 4197.81   1
   4   0   0 307700. 8104.84   3
   4   0   0 320870. 8134.29   1
   5   0   0 147502. 6284.97   3
   5   0   0 148860. 6201.82   1
   6   0   0 22265.3 2682.96   1
   6   0   0 24633.7 2860.41   3
   7   0   0 2858.26 1085.68   1
   7   0   0 2762.04 1076.49   3
   8   0   0 27145.5 3498.20   1
   9   0   0 38293.2 4438.97   1
  10   0   0 600.030 582.497   1
  11   0   0 8331.52 2388.19   1
   0   1   0 67.3598 90.3337   3
   1  -1   0 46653.3 1988.28   3
   1  -1   0 41490.7 1954.71   2
  -1   1   0 46761.2 1898.25   1
  -1   1   0 41126.8 1949.86   3
  -1   1   0 46895.3 2039.52   2
  -2   1   0 2826.07 518.092   1
  -2  -1   0 2747.81 483.211   3
   2  -1   0 2323.52 563.269   3
   2  -1   0 2868.32 530.731   2
   2  -1   0 2620.66 513.537   1
   3  -1   0 4731.81 816.394   1
   3  -1   0 6226.59 1067.07   3
   4   1   0 69882.4 4316.14   1
   4  -1   0 78606.4 4338.13   3
   4  -1   0 77420.7 3826.87   1
   5  -1   0 125328. 5504.94   1
   5  -1   0 128839. 6171.09   3
   5   1   0 124362. 6232.99   1
   6   1   0 774.705 588.635   1
   6  -1   0 1072.55 607.162   3
   6  -1   0 1882.56 774.582   1
   7   1   0 5617.48 1546.62   1
   7  -1   0 6909.53 1576.60   1
   7  -1   0 5669.19 1603.52   3
   8  -1   0 67684.5 5335.59   1
   8  -1   0 79482.1 6308.87   3
   8   1   0 81634.6 6307.96   1
   9  -1   0 79022.0 6200.16   1
   9   1   0 82216.7 6745.39   1
   9  -1   0 71470.9 6433.92   3
  10  -1   0-524.166 531.112   1
  10   1   0-295.298 265.605   1
  11   1   0 233.964 401.371   1
   0  -2   0 341463. 5866.22   3
   0   2   0 334408. 7712.52   2
   0   2   0 330415. 6569.40   3
   1  -2   0 146551. 4433.03   3
  -1   2   0 145626. 4706.80   3
  -1  -2   0 150171. 4012.81   3
  -1   2   0 152789. 5221.37   2
   2  -2   0 33729.8 2379.57   3
  -2   2   0 32462.6 2402.43   2
   3  -2   0 16745.8 1902.03   3
   3  -2   0 17148.9 1782.09   1
   4  -2   0 118859. 5023.64   1
   4  -2   0 117959. 5650.93   3
   5  -2   0 5070.60 1272.69   3
   5  -2   0 7525.06 1363.54   1
   6  -2   0 991.003 603.949   1
   6   2   0 1615.35 826.037   1
   6  -2   0 1261.03 874.127   3
   7  -2   0-429.781 382.590   1
   7  -2   0 61.5798 170.744   3
   7   2   0-24.4915 121.641   1
   8  -2   0 162161. 8140.43   1
   8   2   0 165683. 9580.98   1
   8  -2   0 158885. 9203.58   3
   9  -2   0 11401.3 2332.20   1
   9  -2   0 8760.68 2299.56   3
   9   2   0 7557.89 2153.91   1
  10  -2   0 4537.73 1777.55   3
  10   2   0 6275.58 2111.08   1
  11   2   0 260.785 445.121   1
   0   3   0 522.891 314.166   3
   0   3   0 531.208 514.697   2
   0  -3   0-9.72948 133.278   3
   1  -3   0 212271. 6025.31   3
  -1  -3   0 207375. 5494.20   3
  -1   3   0 205798. 7445.80   2
   2  -3   0 2824.56 746.800   3
  -2   3   0 1729.21 716.132   2
   3  -3   0 26249.5 2586.84   3
   4  -3   0 115315. 5917.89   3
   5  -3   0 149936. 7355.83   3
   5  -3   0 139468. 6522.64   1
   6  -3   0 9369.29 2010.60   3
   6  -3   0 11737.1 2019.64   1
   7  -3   0 5532.45 1448.13   1
   7  -3   0 4182.44 1434.85   3
   7   3   0 7158.04 2078.31   1
   8  -3   0 8812.81 2247.77   3
   8   3   0 8182.85 2258.37   1
   9   3   0 9122.52 2524.59   1
   9  -3   0 1704.55 1036.20   3
  10   3   0 1364.79 1006.67   1
  10  -3   0 255.496 430.833   3
   0   4   0 638.081 628.041   2
   0  -4   0 1287.16 470.768   3
  -1   4   0 12991.2 2175.16   2
   1  -4   0 14287.1 1735.49   3
  -1  -4   0 14221.1 1558.81   3
   1   4   0 11519.7 2080.60   2
  -2   4   0 179.096 340.636   2
  -2  -4   0 246.212 209.307   3
   2  -4   0 188.911 213.517   3
   3  -4   0 2346.99 861.966   3
  -3  -4   0 1998.50 711.188   3
   4  -4   0-332.902 333.329   3
   5  -4   0 136158. 7439.78   3
   6  -4   0 28671.1 3706.38   3
   7  -4   0 25219.5 3682.36   3
   8  -4   0 1571.10 906.103   3
   8   4   0 5198.42 1928.97   1
   9  -4   0 10703.8 2786.43   3
   9   4   0 6628.34 2230.27   1
   0   5   0 2081.42 965.708   2
   0  -5   0 433.730 294.529   3
   1   5   0 1254.36 933.181   2
   1  -5   0 525.697 386.550   3
  -1   5   0-1102.62 704.174   2
  -2   5   0 997.441 702.592   2
   2  -5   0 252.396 360.830   3
   2   5   0 1360.36 953.109   2
   3  -5   0 113040. 6207.79   3
   3   5   0 110614. 7405.82   2
   4  -5   0 27488.4 3257.85   3
   5  -5   0 6575.41 1744.56   3
   6  -5   0 2446.70 1102.01   3
   7  -5   0 10534.0 2443.82   3
   8  -5   0 25318.6 4121.67   3
   8   5   0 24350.8 4605.95   1
   0   6   0 4328.76 1619.55   2
  -1   6   0 23762.1 3663.05   2
   1   6   0 25454.3 3918.54   2
   2   6   0 3544.55 1482.79   2
  -2   6   0 1459.64 837.548   2
   3   6   0 95948.1 7744.37   2
   4   6   0 8726.45 2339.20   2
   4  -6   0 5248.43 1502.79   3
   5   6   0 28267.8 4275.90   2
   5  -6   0 28347.5 3780.01   3
   6   6   0 13975.1 3071.18   2
   6  -6   0 15314.1 2955.59   3
   7  -6   0 1941.74 1088.86   3
   7   6   0 4518.85 1738.35   2
   8  -6   0-325.875 480.891   3
   0   7   0 1331.39 901.578   2
   1   7   0 8362.68 2451.41   2
  -1   7   0 8120.05 2370.68   2
   2   7   0 130.562 312.648   2
   3   7   0 254.133 448.555   2
   4   7   0 1689.64 1128.09   2
   5   7   0 617.725 1075.49   2
   6   7   0 14922.3 3517.31   2
  11   0  -1-78.5141 219.830   1
  10   0  -1 631.889 566.163   1
   9   0  -1-54.1454 376.663   1
   9   0  -1 707.284 595.564   3
   8   0  -1-461.549 420.117   1
   8   0  -1 129.775 240.598   3
   7   0  -1 354.047 360.178   3
   7   0  -1 321.671 323.294   1
   6   0  -1 496.073 366.566   1
   6   0  -1 115.777 276.918   3
   5   0  -1-198.483 221.172   3
   5   0  -1 9.23840 48.7187   1
   4   0  -1 410.088 356.333   3
   4   0  -1 316.456 253.703   1
   3   0  -1 273.487 197.577   3
  -2   0   1-13.5376 77.3800   3
   2   0  -1 172.719 138.655   3
   1   0   1 38.7832 94.5027   1
   2   0   1-152.803 144.106   1
   3   0   1 9.46116 82.5560   1
   4   0   1 27.5493 153.103   1
   5   0   1 70.6443 145.978   1
   6   0   1 55.4029 142.950   1
   7   0   1-596.756 495.805   1
   8   0   1 791.267 763.144   1
   9   0   1-871.397 693.133   1
  10   0   1 525.985 574.977   1
  11   0   1-601.141 650.094   1
  12   1  -1 1709.67 1093.15   1
  11   1  -1-651.960 640.369   1
  11  -1  -1 578.249 636.571   3
  10  -1  -1 12173.0 2812.68   3
  10   1  -1 11537.9 2583.33   1
   9  -1  -1 676.229 603.033   3
   9   1  -1-287.649 383.069   1
   9  -1  -1 120.178 225.689   1
   8  -1  -1 319.334 333.421   1
   8   1  -1-2.04886 28.3633   1
   7  -1  -1 279.339 422.197   1
   7  -1  -1 645.801 502.040   3
   7   1  -1-7.25446 63.9397   1
   7   1  -1-375.546 353.546   3
   6   1  -1 10312.9 1730.31   3
   6  -1  -1 15532.8 2338.88   3
   6  -1  -1 12378.3 1759.88   1
   6   1  -1 13274.8 2188.77   1
   5  -1  -1 106513. 4487.48   1
   5  -1  -1 115900. 5771.44   3
   5   1  -1 108056. 4913.98   3
   4  -1  -1 15662.9 1920.65   3
   4  -1  -1 16371.4 1500.57   1
   4   1  -1 15556.4 1614.39   3
  -3   1   1 486.300 182.433   1
   3  -1  -1 765.261 249.920   1
   3  -1  -1 539.815 322.569   3
  -3  -1   1 892.360 342.898   3
   3   1  -1 163.119 133.474   3
   2  -1  -1 70649.1 3333.26   3
   2  -1  -1 71350.1 1730.16   1
  -2  -1   1 74720.2 2243.75   3
  -2   1   1 73628.9 1716.85   1
   2   1  -1 73133.3 2160.25   3
   0  -1  -1 264148. 4899.26   2
   0   1  -1 269196. 3325.55   3
   1  -1   1 54376.7 2742.60   1
   1   1   1 55163.9 2110.90   2
   1  -1   1 54154.6 2260.88   3
  -1   1  -1 55035.8 2647.73   1
  -1   1  -1 58110.4 2313.05   3
  -2   1  -1 82433.1 2710.59   2
   2  -1   1 79550.0 3413.39   3
   2   1   1 83637.6 3842.00   1
   2  -1   1 86219.5 3693.18   1
   3  -1   1 188509. 4411.01   2
   3   1   1 189796. 6592.78   1
   3  -1   1 182149. 5994.21   1
   3  -1   1 185132. 6157.31   3
   4  -1   1 160824. 6445.88   3
   4   1   1 152860. 6534.75   1
   4  -1   1 156086. 6204.53   1
   4  -1   1 154244. 4250.67   2
   5  -1   1 1162.66 577.148   1
   5   1   1 559.385 425.256   1
   5  -1   1 340.803 237.997   2
   5  -1   1-529.411 401.118   3
   6  -1   1 949.157 540.154   1
   6   1   1 247.153 152.626   1
   6  -1   1 410.564 519.594   3
   7   1   1 32990.7 3894.67   1
   7  -1   1 39716.6 4073.06   1
   8  -1   1 3425.82 1263.13   1
   8   1   1 7656.68 2018.85   1
   9  -1   1 8818.50 2223.16   1
   9   1   1 8697.17 2317.12   1
  10   1   1 2304.85 1155.20   1
  10  -1   1 2297.96 1176.23   1
  11  -1   1 5257.10 1883.23   1
  11   1   1 4368.29 1852.86   1
  11  -2  -1 1585.76 1087.38   3
  11   2  -1 2058.63 1198.61   1
  10   2  -1 21353.3 3777.17   1
  10  -2  -1 20948.9 3768.59   3
   9   2  -1 83361.1 7053.10   1
   9  -2  -1 83942.1 7133.62   3
   8  -2  -1 5509.21 1383.18   1
   8  -2  -1 4586.45 1575.16   3
   8   2  -1 7206.26 1994.44   1
   7  -2  -1 1943.25 769.772   1
   7  -2  -1 3271.13 1190.79   3
   6  -2  -1 19413.4 2732.11   3
   6  -2  -1 21131.2 2240.59   1
   5  -2  -1 42342.1 3733.20   3
   5  -2  -1 35943.7 2605.99   1
   4  -2  -1 876.100 482.335   3
   4  -2  -1 850.100 318.355   1
  -4   2   1 806.888 320.790   1
  -3  -2   1 151.161 161.181   3
   3  -2  -1-86.2599 142.224   3
  -3   2   1-165.148 128.612   1
   2  -2  -1 51745.8 3251.24   3
  -2   2   1 50293.1 2268.76   1
  -2  -2   1 50449.3 1397.28   3
   1  -2  -1 163191. 5497.81   3
   0  -2  -1 32013.8 2441.47   3
   0   2  -1 29310.8 1479.24   3
   0  -2   1 29545.7 1347.51   3
   0   2   1 29476.0 2254.19   2
  -1   2  -1 16648.1 1416.15   3
   1   2   1 18250.3 1792.60   2
   1  -2   1 16377.2 1366.62   3
  -2   2  -1 48764.3 3016.71   2
   2  -2   1 49558.6 2878.98   3
   2   2   1 51065.2 2964.16   2
   3  -2   1 111100. 5204.42   1
   3  -2   1 105036. 4870.00   3
  -3   2  -1 108740. 4422.28   2
   4  -2   1 2796.01 892.053   1
   4   2   1 3205.90 1093.91   1
   4  -2   1 4995.63 1176.58   3
   5   2   1 834.114 530.826   1
   5  -2   1-275.460 290.008   1
   6   2   1 447.186 494.268   1
   6  -2   1 736.640 536.192   1
   6  -2   1 456.321 438.046   3
   7  -2   1 93087.0 6678.74   3
   7  -2   1 92333.7 6240.48   1
   7   2   1 83721.1 6543.75   1
   8  -2   1 93142.0 6725.54   1
   8   2   1 103094. 7709.62   1
   8  -2   1 99031.0 7381.49   3
   9   2   1 3429.66 1468.26   1
   9  -2   1 3270.65 1395.26   1
  10   2   1 372.948 520.258   1
  10  -2   1-33.6301 149.199   1
  10  -3  -1 369.361 510.514   3
  10   3  -1 3386.16 1566.42   1
   9  -3  -1 97057.7 7901.38   3
   9   3  -1 78678.4 7372.37   1
   8  -3  -1 529.023 536.766   3
   8   3  -1-297.716 429.232   1
   7  -3  -1-545.934 509.372   3
   6  -3  -1 224151. 9804.58   3
   6  -3  -1 224938. 7713.29   1
   5  -3  -1 11496.4 2055.72   3
   4  -3  -1 112299. 6061.65   3
  -4  -3   1 106243. 3587.96   3
   3  -3  -1 12235.2 1873.66   3
  -3  -3   1 10391.3 863.689   3
   2  -3  -1 31947.2 2828.12   3
   1  -3  -1 185005. 6517.86   3
  -1   3   1 179869. 6869.04   2
  -1  -3   1 179017. 2957.07   3
   0  -3  -1 103361. 4824.26   3
   0   3   1 99501.9 5141.22   2
   0   3  -1 103445. 3731.81   3
   0  -3   1 100916. 3079.40   3
  -1  -3  -1 981.119 541.299   3
   1  -3   1 587.964 303.114   3
   1   3   1 904.262 574.009   2
  -1   3  -1 542.075 378.141   2
  -2   3  -1 6899.81 1394.31   2
   2   3   1 5821.79 1293.75   2
   2  -3   1 5603.09 1046.03   3
  -3   3  -1 52670.0 3771.19   2
   3  -3   1 50726.9 3628.93   3
   4  -3   1 69637.2 4632.56   3
   5  -3   1 39933.3 3877.46   3
   5  -3   1 37345.8 3801.39   1
   6  -3   1 25149.4 3335.64   3
   6   3   1 19332.5 3192.63   1
   6  -3   1 21596.2 3008.45   1
   7  -3   1 6709.31 1739.02   1
   7   3   1 9474.73 2347.89   1
   7  -3   1 7643.69 1966.33   3
   8  -3   1-37.1989 566.283   3
   8  -3   1-421.230 457.921   1
   8   3   1 297.058 433.283   1
   9   3   1 6323.60 2100.31   1
  10   3   1 2849.03 1555.24   1
   9  -4  -1 94.2735 256.729   3
   9   4  -1 1280.32 995.078   1
   8  -4  -1 2358.79 1235.88   3
   7  -4  -1 3472.28 1340.69   3
   6  -4  -1 43201.8 4550.12   3
   5  -4  -1 15282.8 2531.70   3
   4  -4  -1-38.0111 122.559   3
  -3  -4   1 7336.18 741.887   3
   3  -4  -1 7959.58 1620.66   3
   2  -4  -1 10716.5 1803.98   3
  -2  -4   1 9066.37 638.180   3
  -1  -4   1 152.382 106.617   3
   1  -4  -1 77.0596 248.332   3
   0   4   1 66376.6 4876.17   2
   0  -4   1 67317.6 2905.82   3
   0   4  -1 67067.3 5017.89   2
   0  -4  -1 59644.4 3997.84   3
   1   4   1 6356.78 1552.06   2
   1  -4   1 5529.10 970.906   3
  -1   4  -1 5249.31 1524.60   2
  -1  -4  -1 6103.80 1290.16   3
   2  -4   1 36738.7 2883.54   3
  -2   4  -1 34792.1 3580.56   2
  -2  -4  -1 30414.5 3014.11   3
   2   4   1 38673.8 3818.72   2
  -3   4  -1 25798.9 3097.15   2
   3  -4   1 28510.0 2848.42   3
   3   4   1 30650.4 3407.94   2
   4   4   1 130960. 7042.73   2
   4  -4   1 133179. 6834.38   3
   5  -4   1 58638.1 4920.03   3
   5   4   1 55157.7 4630.85   2
   6  -4   1 1189.64 739.924   3
   6   4   1 1187.45 844.963   1
   7   4   1 30442.7 4574.50   1
   7  -4   1 32438.8 4231.48   3
   8   4   1 1310.44 971.951   1
   8  -4   1 704.596 394.043   3
   9  -4   1 19893.9 3798.06   3
   9   4   1 20840.8 4110.24   1
   9  -5  -1 10253.0 2756.16   3
   8  -5  -1 10539.7 2674.73   3
   7  -5  -1 9366.29 2331.67   3
   6  -5  -1 5227.65 1685.83   3
   5  -5  -1 1779.93 913.460   3
   4  -5  -1 81773.5 5841.39   3
   3  -5  -1 1921.19 903.972   3
   2  -5  -1 15528.9 2321.81   3
  -1   5   1 6765.93 1727.79   2
   1   5  -1 6768.85 1887.08   2
   1  -5  -1 5758.83 1341.49   3
   0   5   1 3739.96 1298.92   2
   0  -5  -1 3558.96 1046.11   3
   0   5  -1 1374.96 1069.79   2
   1   5   1-174.606 238.864   2
  -1  -5  -1 8.03968 58.3058   3
  -1   5  -1 30.0207 432.428   2
   1  -5   1 20.2084 69.3660   3
   2   5   1 162077. 8729.51   2
   2  -5   1 151329. 6319.47   3
  -2  -5  -1 149594. 6835.88   3
  -2   5  -1 160827. 8708.68   2
   3   5   1 26794.1 3586.67   2
   3  -5   1 25055.9 2859.42   3
  -3   5  -1 24801.1 3382.71   2
   4  -5   1 2723.97 1037.21   3
   4   5   1 2973.90 1210.66   2
   5  -5   1 17486.5 2808.38   3
   5   5   1 18208.1 3030.66   2
   6  -5   1 7138.47 1923.44   3
   6   5   1 4598.42 1606.15   2
   7   5   1 5013.96 2020.88   1
   7  -5   1 5082.27 1739.70   3
   8   5   1 3418.36 1754.64   1
   8  -5   1 1335.05 794.885   3
   8  -6  -1 8392.76 2582.71   3
   7  -6  -1 32072.0 4585.52   3
   6  -6  -1 6476.85 1857.64   3
   5  -6  -1 2053.39 1011.61   3
   4   6  -1 80938.3 7242.98   2
   4  -6  -1 92269.6 6598.66   3
   3  -6  -1 51948.2 4644.39   3
   3   6  -1 59757.5 6207.17   2
   2   6  -1 8111.73 2362.65   2
  -1   6   1 2596.29 1159.96   2
   1   6  -1 1111.70 987.717   2
   0   6   1 4372.70 1583.88   2
   0   6  -1 8053.31 2145.57   2
   1   6   1 8137.69 2150.55   2
  -1   6  -1 12203.3 2726.23   2
  -2   6  -1 33579.5 4397.00   2
   2   6   1 37013.2 4632.57   2
  -3   6  -1 3332.15 1316.34   2
   3   6   1 4048.14 1532.26   2
   4   6   1 46.4948 479.495   2
   5   6   1 33076.9 4544.38   2
   6   6   1 2119.91 1402.53   2
   6  -6   1 957.533 719.626   3
   7  -6   1 3010.52 1349.20   3
   5   7  -1 486.528 618.024   2
   4   7  -1 3871.85 1967.14   2
   3   7  -1 2288.58 1508.82   2
   2   7  -1 2332.50 1271.16   2
   1   7  -1 385.983 749.925   2
   0   7  -1 3281.30 1625.72   2
   0   7   1 4296.24 1676.36   2
  -1   7  -1 41137.8 5373.81   2
   1   7   1 41105.3 5351.10   2
   2   7   1 10949.3 2805.27   2
  -2   7  -1 9942.21 2600.58   2
   3   7   1-607.094 651.458   2
   4   7   1 836.010 701.324   2
   5   7   1 22479.7 4028.74   2
  11   0  -2 46273.5 5540.95   3
  10   0  -2 88920.4 7187.39   3
  10   0  -2 76196.9 6046.88   1
   9   0  -2 45.0478 329.603   1
   9   0  -2 1810.13 937.253   3
   8   0  -2 13163.7 2377.12   3
   8   0  -2 12466.6 2137.19   1
   7   0  -2 47840.8 4189.40   3
   7   0  -2 46866.9 3838.18   1
   6   0  -2 478918. 12180.3   3
   6   0  -2 461306. 10967.6   1
   5   0  -2 13822.0 1878.66   3
   4   0  -2 10455.2 1485.40   3
   3   0  -2 15345.9 1643.88   3
   0   0  -2 393791. 6577.72   1
   0   0   2 409055. 6802.17   1
   1   0   2 113324. 4131.47   1
   2   0   2 1938.64 594.534   1
   3   0   2 8895.12 1476.46   1
   4   0   2 17429.1 2263.21   1
   5   0   2 13464.2 2188.19   1
   6   0   2 6198.48 1590.69   1
   7   0   2 58982.6 5334.91   1
   8   0   2 1482.74 1025.35   1
   9   0   2 4136.53 1714.05   1
  10   0   2 3356.41 1527.11   1
  11   0   2 76198.5 7852.39   1
  11   1  -2 2149.75 1220.86   1
  11  -1  -2 1417.19 986.339   3
  10  -1  -2-8.47798 93.3104   3
  10   1  -2 275.621 383.056   1
   9   1  -2 1496.21 839.382   1
   9   1  -2 2268.51 1078.53   3
   9  -1  -2 2587.74 1165.21   3
   8   1  -2 1531.66 754.089   1
   8  -1  -2 665.995 550.941   3
   8  -1  -2 1475.15 694.686   1
   8   1  -2 1900.85 833.931   3
   7  -1  -2 669.578 591.957   3
   7   1  -2 1793.42 820.371   1
   7   1  -2 742.553 485.380   3
   7  -1  -2 340.177 287.107   1
   6  -1  -2 5083.85 1019.44   1
   6   1  -2 4945.99 1161.32   3
   6  -1  -2 4646.22 1269.43   3
   5  -1  -2 6527.67 978.237   1
   5   1  -2 6241.34 1171.98   3
   5  -1  -2 7655.98 1544.45   3
   4  -1  -2 5011.74 1109.15   3
   4  -1  -2 4842.07 685.425   1
   4   1  -2 6347.49 1022.22   3
   3  -1  -2 4126.38 426.372   1
  -3  -1   2 5586.57 908.563   3
   3   1  -2 5179.95 791.506   3
   1  -1  -2 999999. 14333.9   3
   0   1   2 56161.6 2369.74   1
   0  -1  -2 60827.6 2554.43   1
  -1  -1  -2-11.0122 32.8725   2
   1   1   2 98.9622 119.614   1
   1  -1   2-67.3926 114.043   1
   2   1   2 21244.5 2066.71   1
   2  -1   2 23204.0 2263.27   1
   3  -1   2 119424. 5550.89   1
   3   1   2 117237. 5506.91   1
  -3   1  -2 121176. 3225.28   2
   4   1   2 2383.74 370.114   2
   4  -1   2 1416.93 617.074   1
   4   1   2 1738.95 752.944   1
   5  -1   2 23287.1 2880.82   1
   5   1   2 20975.7 1067.46   2
   6   1   2 126306. 7464.96   1
   6  -1   2 113940. 6920.43   1
   7   1   2 270556. 11763.8   1
   7  -1   2 293158. 11898.6   1
   8  -1   2 1886.08 1111.21   1
   8   1   2 2570.35 1199.68   1
   9  -1   2 1947.73 1083.77   1
   9   1   2 4772.97 1742.24   1
  10  -1   2-560.494 618.196   1
  10   1   2 341.484 496.936   1
  11  -1   2 12430.6 3118.11   1
  12   2  -2 761.321 746.543   1
  11   2  -2 1422.57 1011.67   1
  11  -2  -2 824.861 779.476   3
  10  -2  -2 86264.0 7646.53   3
  10   2  -2 79099.2 7079.42   1
   9   2  -2 5356.84 1683.55   1
   9  -2  -2 4732.03 1643.66   3
   8  -2  -2 14906.2 2770.96   3
   7  -2  -2 97164.3 6644.00   3
   7  -2  -2 97745.3 4626.38   1
   6   2  -2 20833.6 2199.34   3
   6  -2  -2 23299.1 3052.00   3
   6  -2  -2 21600.9 1884.31   1
   5  -2  -2 6021.53 851.476   1
   5  -2  -2 5251.96 1340.15   3
   5   2  -2 7167.28 1113.35   3
   4  -2  -2 27598.2 2934.52   3
  -4  -2   2 24783.0 1872.62   3
   4   2  -2 24714.1 1738.82   3
   3   2  -2 102449. 2646.43   3
   3  -2  -2 97468.3 5306.55   3
  -3  -2   2 101928. 3073.17   3
   2  -2  -2 99489.5 5134.40   3
   1  -2  -2 12166.1 1772.31   3
   0  -2  -2 392.598 437.952   3
   0   2  -2 32.0128 51.3547   3
   1   2   2 582.858 348.435   1
   2   2   2 345762. 7311.23   2
   2   2   2 336301. 9273.60   1
   2  -2   2 324658. 9766.30   1
   3   2   2 220135. 5866.37   2
  -3   2  -2 214650. 6281.58   2
   3   2   2 223425. 8250.17   1
   3  -2   2 206786. 8026.62   1
   4   2   2-416.789 379.399   1
   4  -2   2 123.600 204.208   1
   4   2   2 134.763 248.166   2
   5   2   2 667.592 535.725   1
   5   2   2 444.972 313.505   2
   5  -2   2-465.378 418.184   1
   6   2   2 34678.6 4057.74   1
   6  -2   2 32938.5 3821.87   1
   7   2   2 8456.21 2203.83   1
   7  -2   2 6314.07 1809.84   1
   8   2   2 23781.8 3851.41   1
   8  -2   2 28105.3 3966.92   1
   9  -2   2 1853.29 1141.22   1
   9   2   2 2008.56 1167.67   1
  10   2   2 705.533 736.652   1
  10  -2   2 212.027 391.346   1
  11   3  -2 8710.87 2591.63   1
  10   3  -2 59562.5 6693.85   1
  10  -3  -2 61010.7 6676.87   3
   9  -3  -2 32230.4 4519.74   3
   8  -3  -2 5004.20 1648.14   3
   7  -3  -2 115465. 7677.52   3
   6  -3  -2 124756. 7433.21   3
   5  -3  -2 17317.1 2636.63   3
  -4   3   2 1936.07 439.489   1
   4  -3  -2 2768.85 1076.97   3
  -4  -3   2 1373.61 370.589   3
  -3   3   2 31630.8 1855.90   1
   3  -3  -2 26917.3 2997.85   3
   2  -3  -2 8996.57 1654.96   3
   1  -3  -2 172799. 7286.88   3
   0  -3  -2 2480.93 874.785   3
   0   3  -2 1339.01 377.109   3
  -1  -3  -2 5884.48 1377.58   3
   1   3   2 5626.62 1172.78   2
   2  -3   2 303.501 367.918   3
   2   3   2 401.572 317.759   2
   3   3   2 20600.1 2287.02   2
  -3   3  -2 20292.3 2377.66   2
   3   3   2 17051.2 2536.43   1
   3  -3   2 21112.0 2420.47   3
  -4   3  -2 2273.97 693.269   2
   4   3   2 1194.55 650.694   2
   4  -3   2 976.583 554.080   3
   4  -3   2 1660.61 816.682   1
   4   3   2 2101.40 948.172   1
   5   3   2 834.664 622.802   1
   5   3   2 153.830 366.995   2
   5  -3   2 657.382 538.357   1
   6   3   2 11524.5 2527.40   1
   6  -3   2 13684.4 2617.05   1
   7   3   2 364.423 835.074   1
   7  -3   2 531.701 532.891   1
   8   3   2 1325.61 932.689   1
   8  -3   2 1327.06 882.803   1
   9  -3   2-754.643 702.635   1
   9   3   2 182.553 372.301   1
  10   4  -2 1887.78 1253.19   1
   9  -4  -2-37.7294 167.467   3
   8  -4  -2 2242.22 1156.65   3
   7  -4  -2 26532.0 3823.66   3
   6  -4  -2 4932.30 1534.27   3
   5  -4  -2 37044.2 4109.93   3
   4  -4  -2-429.566 412.902   3
   3  -4  -2 558.721 451.220   3
   2  -4  -2 43.4769 126.907   3
   1  -4  -2 46203.9 4043.24   3
   0  -4  -2 21598.7 2773.01   3
   0   4   2 27119.5 3081.11   2
   0   4  -2 25305.4 1950.30   3
   1   4   2 71770.6 4986.49   2
   1  -4   2 75500.8 3555.65   3
  -1   4  -2 68901.1 5142.69   2
  -1  -4  -2 73381.3 5201.95   3
   2  -4   2 46163.3 3281.68   3
   2   4   2 44063.2 3929.06   2
  -2   4  -2 46867.4 4241.66   2
  -2  -4  -2 35825.7 3709.71   3
   3   4   2 74818.8 5115.05   2
   3  -4   2 78799.1 4816.99   3
  -3   4  -2 74050.7 5247.95   2
   4   4   2 115413. 7663.75   1
  -4   4  -2 123307. 6701.59   2
   4  -4   2 105652. 6163.97   3
   4   4   2 116912. 6440.31   2
   5   4   2 9562.23 1907.20   2
   5  -4   2 6542.89 1631.69   3
   5   4   2 10679.8 2461.50   1
   6   4   2 25891.4 4038.68   1
   7   4   2 298.833 451.121   1
   8  -4   2 2425.55 1249.56   1
   8   4   2 3041.84 1484.56   1
   8  -5  -2 3819.45 1581.70   3
   7  -5  -2 28136.5 4185.17   3
   6  -5  -2 1037.62 743.976   3
   5  -5  -2 6228.06 1832.23   3
   4  -5  -2 6413.00 1732.43   3
   3  -5  -2 6989.90 1735.36   3
   2  -5  -2 4081.27 1250.64   3
   1  -5  -2 3923.81 1277.39   3
   0   5  -2 17.7555 656.807   2
   0   5   2 160.621 200.433   2
   0  -5  -2 723.976 598.121   3
  -1  -5  -2 79333.5 5628.80   3
   1   5   2 88585.1 6283.70   2
  -1   5  -2 73550.8 6011.29   2
   2   5   2 120662. 7404.90   2
   2  -5   2 108225. 5276.17   3
  -2   5  -2 116866. 7554.13   2
  -2  -5  -2 122733. 7196.76   3
  -3   5  -2 57728.9 5269.48   2
   3   5   2 52511.6 4902.28   2
   3  -5   2 48008.5 3978.11   3
  -3  -5  -2 55244.6 4986.56   3
  -4   5  -2 44848.6 4557.54   2
   4   5   2 44509.1 4534.59   2
   4  -5   2 58062.6 4732.60   3
   5   5   2 1157.26 800.852   2
   5  -5   2 1755.02 969.065   3
   5   5   2 3611.71 1548.58   1
   6   5   2 8810.31 2520.73   1
   7   5   2 2845.88 1469.95   1
   7  -6  -2 15556.1 3234.90   3
   6  -6  -2 231.545 368.659   3
   5  -6  -2 84379.7 6880.80   3
   4  -6  -2 14587.5 2760.22   3
   3  -6  -2 34085.8 4033.33   3
   2  -6  -2-416.799 425.183   3
   1   6  -2 1999.40 1094.64   2
   1  -6  -2 9.60750 460.083   3
   0   6  -2 10092.8 2477.07   2
   1   6   2 6587.91 1829.77   2
  -1   6  -2 7388.49 2166.01   2
  -2   6  -2 950.046 771.628   2
   2   6   2 508.522 399.348   2
   3   6   2 5230.45 1729.54   2
  -3   6  -2 7503.57 2068.22   2
  -4   6  -2-414.019 578.568   2
   4   6   2 153.888 299.383   2
   5   6   2 3979.63 1785.39   1
   5   6   2 3650.17 1369.92   2
   6   6   2-212.587 416.599   1
   4   7  -2 3025.73 1638.00   2
   3   7  -2 9487.85 2730.89   2
   2   7  -2 1499.80 1170.04   2
   1   7  -2 7683.52 2422.64   2
   0   7  -2 4880.23 2093.68   2
  -1   7  -2 9146.02 2544.47   2
   2   7   2 7369.38 2223.21   2
  -2   7  -2 9248.39 2486.28   2
  -3   7  -2 6069.26 2064.88   2
   3   7   2 4643.20 1869.27   2
   4   7   2 20053.3 3692.88   2
  12   0  -3 733.800 727.609   3
  11   0  -3 701.912 667.923   3
  10   0  -3-418.988 483.854   3
   9   0  -3 230.532 291.317   1
   9   0  -3-383.374 431.926   3
   8   0  -3-146.018 218.263   1
   8   0  -3 934.041 622.801   3
   7   0  -3 264.488 366.143   3
   7   0  -3-252.473 268.258   1
   6   0  -3 515.384 401.260   3
   5   0  -3 286.698 278.340   3
   4   0  -3 468.976 337.048   3
   3   0  -3 16.7543 186.243   3
   2   0  -3 98.3554 114.510   1
   2   0  -3-3.08897 41.6037   3
   1   0  -3 197.378 178.774   1
  -1   0   3 66.3444 102.753   1
   0   0   3-106.673 134.775   1
   1   0   3-171.003 185.928   1
   2   0   3 387.536 392.235   1
   3   0   3 41.7865 115.471   1
   4   0   3 468.267 400.465   1
   5   0   3 673.362 520.373   1
   6   0   3 324.423 391.169   1
   7   0   3 42.2741 156.550   1
   8   0   3 964.564 767.999   1
   9   0   3-90.5127 640.348   1
  10   0   3-400.292 557.676   1
  11   1  -3 14981.3 3006.70   3
  11  -1  -3 13139.6 3064.75   3
  10   1  -3 119.758 249.878   1
  10   1  -3 468.788 489.137   3
  10  -1  -3-78.7529 224.935   3
   9   1  -3 731.948 578.283   1
   9   1  -3 599.377 513.823   3
   9  -1  -3 78.7277 205.695   3
   8  -1  -3 4378.51 1464.50   3
   8   1  -3 3707.16 1176.95   3
   7   1  -3 21239.6 2632.16   3
   7  -1  -3 21986.2 2160.61   1
   7  -1  -3 20273.4 2919.21   3
   6   1  -3 15406.8 2064.25   3
   6  -1  -3 11983.5 2105.22   3
   6  -1  -3 13591.8 1456.15   1
   5   1  -3 16272.5 1932.47   3
   5  -1  -3 15268.3 1319.78   1
   5  -1  -3 13281.6 2131.04   3
   4   1  -3 41864.0 2828.03   3
   4  -1  -3 41286.1 3567.14   3
   4  -1  -3 42566.8 1759.76   1
   3   1  -3 60550.4 3235.77   3
   3  -1  -3 64878.5 4428.46   3
   3  -1  -3 63781.8 1674.57   1
   2  -1  -3 540765. 12398.6   3
   2   1  -3 520909. 9585.38   3
   1  -1  -3 11314.4 1802.03   3
   1  -1  -3 9087.91 945.430   1
  -1   1   3 10967.1 1081.18   1
   0  -1   3 5621.65 1177.34   1
   0   1   3 5537.49 913.781   1
   1   1   3 113157. 4720.72   1
   1  -1   3 112889. 5409.32   1
   2   1   3 290275. 8442.75   1
   2  -1   3 278353. 8946.12   1
  -2  -1  -3 281955. 5249.05   2
  -3   1  -3 938.735 328.601   2
   3  -1   3 654.678 518.224   1
   3   1   3 1318.23 730.845   1
   4   1   3 1215.88 664.797   1
   4  -1   3 737.277 513.265   1
   5   1   3 19614.5 2867.33   1
   5  -1   3 19572.9 2865.69   1
   6   1   3 125085. 7847.59   1
   6  -1   3 127009. 7871.57   1
   7  -1   3 4516.50 1592.56   1
   7   1   3 3826.12 1490.33   1
   8   1   3 1512.80 967.673   1
   8  -1   3 2810.76 1305.39   1
   9  -1   3 2031.68 1178.85   1
   9   1   3 2936.00 1460.95   1
  10  -1   3 16877.4 3617.29   1
  10   1   3 23243.0 4348.22   1
  11   2  -3 10869.8 2667.37   1
  11  -2  -3 9650.27 2651.66   3
  10   2  -3 2577.05 1246.16   1
  10  -2  -3 1665.32 1039.23   3
   9   2  -3 857.339 577.032   3
   9  -2  -3-721.973 644.605   3
   8   2  -3 46657.2 3987.39   3
   8  -2  -3 52592.9 5306.85   3
   7   2  -3 101206. 5383.24   3
   7  -2  -3 105591. 7114.51   3
   6  -2  -3 3572.41 1226.93   3
   6   2  -3 3039.61 836.005   3
   5   2  -3 683.911 367.613   3
   5  -2  -3 2393.14 1027.76   3
   4   2  -3 4651.38 773.825   3
   4  -2  -3 3388.79 1161.24   3
  -4  -2   3 3652.81 815.396   3
   3   2  -3 351194. 5708.46   3
   3  -2  -3 346712. 10944.0   3
   2  -2  -3 218876. 8553.26   3
   2   2  -3 221084. 4690.40   3
  -2   2   3 213194. 3279.16   1
   1  -2  -3 13343.5 2124.01   3
  -1   2   3 12837.3 1184.06   1
   0   2   3 14458.3 1534.25   1
   1   2   3 65891.1 3787.95   1
   2   2   3 31251.1 2889.87   1
   2  -2   3 31016.4 3334.19   1
  -3   2  -3 52420.6 3194.17   2
   3   2   3 58567.1 4387.77   1
   3  -2   3 65691.0 5033.23   1
  -4   2  -3 9648.75 1268.90   2
   4  -2   3 14134.0 2418.92   1
   4   2   3 12570.1 2214.07   1
   5  -2   3 2298.91 1050.70   1
   5   2   3 910.046 628.288   1
   6   2   3 83660.5 6601.03   1
   6  -2   3 79150.5 6438.93   1
   7   2   3 6974.91 2073.76   1
   7  -2   3 4502.87 1627.15   1
   8   2   3 1424.25 1139.04   1
   8  -2   3 2159.19 1160.18   1
   9   2   3 8010.55 2470.80   1
   9  -2   3 10014.5 2685.12   1
  10  -2   3 6695.54 2332.73   1
  11   3  -3 41191.6 5697.95   1
  10  -3  -3 38776.6 5366.95   3
  10   3  -3 41546.9 5549.29   1
   9  -3  -3 3587.61 1491.67   3
   8  -3  -3 65192.7 6196.84   3
   7  -3  -3 27341.7 3793.10   3
   6  -3  -3 53384.0 5051.41   3
   5  -3  -3 1277.21 715.393   3
   4  -3  -3 75.7742 265.782   3
   3  -3  -3 46476.6 4326.21   3
  -2   3   3 10568.6 1056.15   1
   2  -3  -3 10988.7 2075.13   3
   1   3  -3 27741.4 1283.50   3
  -1   3   3 29589.1 2211.02   1
   1  -3  -3 30639.5 3416.48   3
   0   3   3 9036.11 1401.54   1
   0   3  -3 11074.5 1150.91   3
   1   3   3 9861.58 1638.03   1
   2   3   3 3479.00 1060.24   1
   3   3   3 3080.82 1069.54   1
  -3   3  -3 4181.65 1148.13   2
   4   3   3 3061.67 1209.08   1
  -4   3  -3 2116.19 757.609   2
   4  -3   3 1916.29 889.285   1
   5   3   3 11043.8 2373.71   1
   5  -3   3 19274.7 3209.78   1
   6  -3   3 8609.63 2294.64   1
   6   3   3 12329.8 2684.84   1
   7   3   3 6675.41 2045.69   1
   7  -3   3 3475.63 1464.30   1
   8   3   3 3677.79 1649.81   1
   8  -3   3 3101.96 1448.23   1
   9   3   3 13834.9 3423.94   1
   9  -3   3 14871.0 3352.90   1
  10  -3   3 3704.50 1739.38   1
   9  -4  -3 661.073 674.340   3
   8  -4  -3 3584.19 1538.11   3
   7  -4  -3 4745.32 1655.69   3
   6  -4  -3 32426.2 4166.19   3
   5  -4  -3 7384.36 1928.77   3
   4  -4  -3 7723.74 1892.93   3
   3  -4  -3 167.237 270.893   3
   2  -4  -3 78383.0 5843.41   3
   1  -4  -3 3684.30 1271.86   3
   0  -4  -3 24657.3 3329.25   3
   1   4   3 174049. 7794.41   1
  -1  -4  -3 199677. 9494.46   3
  -2   4  -3 28161.0 3337.28   2
   2   4   3 30906.3 3525.03   1
  -3   4  -3 110587. 6572.87   2
   3   4   3 97547.2 6663.79   1
   4   4   3 484.911 490.936   1
   4   4   3 307.820 277.370   2
  -4   4  -3 1076.44 581.375   2
   5   4   3 11487.6 2574.02   1
   6   4   3 13653.1 2959.28   1
   7   4   3 5268.39 1898.72   1
   8   4   3 359.547 527.403   1
   8  -4   3 1306.44 990.806   1
   8  -5  -3 15031.2 3319.43   3
   7  -5  -3 5596.84 1873.23   3
   6  -5  -3 1106.06 795.208   3
   5  -5  -3 519.197 525.362   3
   4  -5  -3 34862.8 4275.13   3
   3  -5  -3-196.704 312.428   3
   2  -5  -3 2137.77 1019.67   3
   1  -5  -3 9468.09 2165.77   3
   0  -5  -3 60798.0 5431.89   3
  -1   5  -3 37859.8 4383.23   2
  -1  -5  -3 39980.8 4441.13   3
  -2  -5  -3 10166.8 2360.39   3
  -2   5  -3 10946.7 2374.39   2
   2   5   3 8665.20 2073.27   1
  -3   5  -3 107529. 7321.56   2
  -3  -5  -3 117364. 8000.96   3
   3   5   3 105704. 7572.91   1
   4   5   3 2971.39 1352.43   1
  -4   5  -3 3601.22 1394.19   2
   5   5   3 4642.74 1795.60   1
   6   5   3 764.713 734.293   1
   7   5   3 15584.1 3542.55   1
   7  -6  -3-588.577 639.532   3
   6  -6  -3 37373.7 4971.55   3
   5  -6  -3 42024.5 5066.87   3
   4  -6  -3 809.011 670.399   3
   3  -6  -3 4503.67 1532.87   3
   2  -6  -3 854.390 741.700   3
   1  -6  -3 169.938 294.838   3
   0   6  -3 10967.8 2698.37   2
   0  -6  -3 7528.95 1930.10   3
  -1   6  -3 1181.12 1224.98   2
  -2   6  -3 2189.51 1153.71   2
  -3   6  -3 697.404 591.687   2
   3   6   3 246.127 523.325   1
   4   6   3 362.324 348.442   1
  -4   6  -3 266.647 398.205   2
   5   6   3 6420.24 2209.80   1
   6   6   3-1425.87 1068.34   1
   6  -7  -3 13620.7 3126.87   3
   3   7  -3-84.4378 273.520   2
   2   7  -3 71.7877 909.658   2
   1   7  -3 28084.4 4640.75   2
   0   7  -3 42117.9 5691.10   2
  -1   7  -3-1282.63 966.845   2
  -2   7  -3-397.346 810.674   2
  -3   7  -3 19561.5 3768.01   2
   4   7   3 46066.8 6105.08   1
  -4   7  -3 46678.9 5772.15   2
  12   0  -4 35655.2 5152.59   3
  11   0  -4 437.504 525.435   3
  10   0  -4 739.235 643.149   3
   9   0  -4 2033.51 1042.66   3
   8   0  -4 49111.0 4706.83   3
   8   0  -4 47951.8 3928.52   1
   7   0  -4 47826.8 4349.43   3
   6   0  -4 10129.2 1910.04   3
   5   0  -4-356.369 337.124   3
   4   0  -4 9295.46 1710.23   3
   3   0  -4 6618.01 1464.00   3
   2   0  -4 21955.3 2641.40   3
  -1   0   4 27871.0 2493.16   1
   0   0   4 2767.17 809.806   1
   1   0   4 55541.3 3891.12   1
   2   0   4 17132.1 2320.34   1
   3   0   4 27979.3 3192.92   1
   4   0   4 9435.69 2037.51   1
   5   0   4 608369. 17174.3   1
   6   0   4 65512.8 6021.35   1
   7   0   4 14457.2 3044.13   1
   8   0   4 7469.54 2252.98   1
   9   0   4 39815.9 5648.49   1
  11   1  -4 10535.8 2528.12   3
  11  -1  -4 17419.8 3532.71   3
  10  -1  -4 7886.07 2231.72   3
  10   1  -4 10656.4 2387.06   3
   9   1  -4 4819.88 1483.35   3
   9  -1  -4 2717.23 1293.19   3
   9   1  -4 4157.85 1364.92   1
   8   1  -4 140838. 7496.07   3
   8  -1  -4 146217. 8572.88   3
   7   1  -4 14897.2 2247.54   3
   7  -1  -4 15429.9 2640.34   3
   6  -1  -4 1694.52 457.744   1
   6   1  -4 424.886 361.649   3
   5   1  -4 5485.82 1196.16   3
   5  -1  -4 6540.30 1604.20   3
   4   1  -4 367226. 9537.45   3
   4  -1  -4 374085. 11711.2   3
   4  -1  -4 370681. 5514.77   1
   3   1  -4 694903. 13207.1   3
   3  -1  -4 719252. 16176.7   3
   3  -1  -4 725261. 7829.52   1
   2  -1  -4 11058.5 1945.35   3
   2   1  -4 10552.2 1664.95   3
   2  -1  -4 9505.14 1049.59   1
   1  -1  -4 14047.7 2279.51   3
  -1   1   4 12341.6 1446.20   1
   0   1   4 177103. 6010.48   1
   0  -1   4 170373. 7327.66   1
   1   1   4 45082.3 3372.37   1
   1  -1   4 50035.5 4068.90   1
  -2  -1  -4 3240.49 625.360   2
   2  -1   4 4561.66 1279.15   1
   2   1   4 2789.82 962.896   1
   3   1   4 3008.83 1027.11   1
   3  -1   4 4507.41 1304.53   1
   4  -1   4 15768.1 2646.42   1
   4   1   4 16217.2 2586.48   1
   5   1   4 112703. 7351.89   1
   5  -1   4 107230. 7401.58   1
   6  -1   4 4966.03 1673.26   1
   6   1   4 3459.89 1303.42   1
   7  -1   4 7592.28 2156.00   1
   7   1   4 13578.9 2942.23   1
   8  -1   4 2923.06 1418.60   1
   8   1   4 4243.84 1711.11   1
   9  -1   4 4274.05 1895.45   1
   9   1   4 4405.45 1993.02   1
  11  -2  -4 1669.37 1109.91   3
  10  -2  -4 7775.38 2267.30   3
  10   2  -4 4731.48 1728.18   1
   9  -2  -4 63367.7 6275.18   3
   8   2  -4 84235.9 5334.88   3
   8  -2  -4 84480.0 6894.50   3
   7   2  -4 3443.22 987.192   3
   7  -2  -4 3016.68 1260.76   3
   6   2  -4 3455.71 903.557   3
   6  -2  -4 4806.41 1531.56   3
   5   2  -4 15104.8 1703.67   3
   5  -2  -4 10695.3 2168.85   3
   4   2  -4 7009.65 1086.11   3
   4  -2  -4 9458.46 2001.77   3
   3   2  -4 280560. 6798.06   3
   3  -2  -4 274869. 10741.0   3
   2   2  -4 9382.21 1346.12   3
  -2   2   4 10574.8 996.570   1
   2  -2  -4 8997.99 1921.46   3
   1  -2  -4 9442.77 1994.14   3
  -1   2   4 7994.21 1092.02   1
   0   2   4 9703.45 1399.48   1
   1   2   4 224792. 7630.85   1
   2  -2   4 17347.1 2733.62   1
   2   2   4 17885.1 2361.12   1
   3  -2   4 4175.90 1430.23   1
   3   2   4 4156.16 1272.11   1
  -4   2  -4 4753.11 948.505   2
   4   2   4 4535.12 1390.87   1
   4  -2   4 6168.34 1719.69   1
   5  -2   4 9128.18 2256.46   1
   5   2   4 10279.1 2293.02   1
   6   2   4 35532.5 4510.73   1
   6  -2   4 31460.0 4380.59   1
   7  -2   4 103.803 260.679   1
   7   2   4 324.113 257.334   1
   8  -2   4 2391.08 1315.47   1
   8   2   4 4831.49 1851.58   1
   9  -2   4 11069.0 3047.71   1
   9   2   4 6965.58 2552.89   1
  11   3  -4 27202.8 4639.10   1
  10  -3  -4-343.489 497.530   3
   9  -3  -4 10792.0 2654.72   3
   8  -3  -4 29426.5 4305.35   3
   7  -3  -4 646.600 592.992   3
   6  -3  -4-23.6691 120.474   3
   5  -3  -4 712.759 630.579   3
   4  -3  -4 502.043 163.914   3
   3   3  -4 824.613 194.943   3
   3  -3  -4 2298.47 1073.15   3
   2   3  -4 687.610 207.487   3
  -2   3   4 1022.00 325.850   1
   2   3  -4 209.004 144.527   3
   2  -3  -4 413.770 424.186   3
   1  -3  -4 599.193 515.765   3
  -1   3   4 278.744 215.112   1
   1   3  -4 652.232 261.653   3
   0  -3  -4 57036.6 5215.79   3
   0   3   4 64421.6 3892.44   1
   1   3   4 36157.4 3224.40   1
   2   3   4 6861.29 1562.20   1
   3   3   4 618.213 492.676   1
  -3   3  -4 338.314 566.846   2
  -4   3  -4 28646.2 2847.06   2
   4   3   4 23433.7 3319.38   1
   4  -3   4 25909.1 3937.76   1
   5   3   4 8392.29 2119.31   1
   5  -3   4 9650.15 2456.51   1
   6   3   4 22212.4 3670.64   1
   6  -3   4 17269.1 3422.46   1
   7  -3   4 867.154 792.430   1
   7   3   4 317.451 464.945   1
   8  -3   4 8090.85 2566.46   1
   8   3   4 7363.23 2324.84   1
   9  -3   4 22004.6 4437.58   1
   9  -4  -4 8480.66 2498.81   3
   8  -4  -4 5691.48 1968.14   3
   7  -4  -4 30668.2 4370.51   3
   6  -4  -4 3225.82 1323.18   3
   5  -4  -4 1620.07 1087.13   3
   4  -4  -4 9119.42 2289.91   3
   3  -4  -4 21279.3 3309.95   3
   2  -4  -4 62449.1 5676.93   3
   1  -4  -4 37119.5 4401.47   3
  -1   4   4 38102.6 2904.45   1
   0  -4  -4 164987. 9300.32   3
   0   4   4 169913. 6945.16   1
  -1  -4  -4 14453.9 2810.51   3
   1   4   4 15215.9 2303.17   1
   2   4   4 21739.3 2968.09   1
   3   4   4 1018.18 728.971   1
  -3   4  -4 2308.49 1136.89   2
   4   4   4 12562.6 2554.10   1
  -4   4  -4 16081.8 2514.24   2
   5   4   4 1409.70 900.567   1
   6   4   4 2388.86 1243.24   1
   7   4   4 47.6769 548.702   1
   8  -4   4 4450.15 1963.32   1
   8  -5  -4 4747.90 1864.10   3
   7  -5  -4 16733.9 3406.75   3
   6  -5  -4 994.423 784.435   3
   5  -5  -4 15666.4 3110.56   3
   4  -5  -4 19373.4 3364.36   3
   3  -5  -4 12231.3 2633.19   3
   2  -5  -4 9897.77 2336.64   3
   1  -5  -4 17.8715 119.713   3
   0  -5  -4 50543.0 5356.17   3
   0   5   4 46053.4 4098.98   1
  -1  -5  -4 17693.8 3227.05   3
   1   5   4 19384.0 2836.49   1
  -2   5  -4 126475. 8139.77   2
  -2  -5  -4 131327. 9063.69   3
   2   5   4 146125. 8381.92   1
  -3  -5  -4 381.327 490.674   3
   3   5   4 482.604 450.431   1
  -3   5  -4 1623.82 1028.32   2
   4   5   4-125.402 278.434   1
  -4   5  -4 362.004 490.661   2
   5   5   4 471.138 555.383   1
   6   5   4 5062.90 1907.13   1
   7  -6  -4 9498.00 2628.13   3
   6  -6  -4 22035.8 3974.37   3
   5  -6  -4-166.499 334.858   3
   4  -6  -4-222.342 375.438   3
   3  -6  -4 578.956 589.305   3
   2  -6  -4 1668.88 974.381   3
   1  -6  -4 6475.80 1976.28   3
   0  -6  -4 9220.22 2383.73   3
  -1   6  -4 2186.84 1369.61   2
  -1  -6  -4 1716.87 1016.48   3
  -2   6  -4 40914.5 5120.96   2
   2   6   4 37642.0 4601.41   1
   3   6   4 116.040 268.370   1
  -3   6  -4-119.960 803.022   2
   4   6   4 11837.2 2887.89   1
  -4   6  -4 8434.77 2271.47   2
   5   6   4 558.685 648.607   1
   5  -7  -4 30769.2 4754.53   3
   1   7  -4 11805.2 3128.38   2
   0   7  -4 13867.1 3406.60   2
  -1   7  -4 3135.69 1584.92   2
  -2   7  -4 6657.97 2227.92   2
  12   0  -5 1673.84 1095.94   3
  11   0  -5 575.494 608.570   3
  10   0  -5 399.066 478.841   3
   9   0  -5 141.773 271.526   3
   8   0  -5 334.438 393.116   3
   7   0  -5 468.710 472.526   3
   6   0  -5 252.602 316.034   3
   5   0  -5 2426.20 1031.03   3
   4   0  -5 695.311 506.666   3
   3   0  -5 55.0710 433.077   3
   2   0  -5 330.622 358.807   3
  -1   0   5 522.223 385.133   1
   0   0   5 709.787 509.543   1
   1   0   5 634.377 458.356   1
   2   0   5 1445.63 729.552   1
   3   0   5-547.399 479.549   1
   4   0   5-366.648 419.368   1
   5   0   5 257.605 495.226   1
   6   0   5-800.228 698.156   1
   7   0   5 277.360 439.326   1
   8   0   5 745.073 754.716   1
  11  -1  -5-229.757 405.055   3
  10   1  -5 5192.21 1692.43   3
  10  -1  -5 3232.20 1425.90   3
   9   1  -5 18935.5 2983.72   3
   9  -1  -5 10349.2 2517.83   3
   8   1  -5 13609.5 2392.75   3
   8  -1  -5 11299.0 2554.59   3
   7   1  -5-288.530 323.258   3
   7  -1  -5 530.777 504.326   3
   6   1  -5 12.1334 69.7476   3
   6  -1  -5-254.956 341.760   3
   5   1  -5 22459.9 2730.57   3
   5  -1  -5 19233.8 2945.04   3
   4   1  -5 25557.2 2862.48   3
   4  -1  -5 27373.6 1770.80   1
   4  -1  -5 31021.5 3713.32   3
   3  -1  -5 7149.14 994.244   1
   3  -1  -5 3965.73 1261.09   3
   3   1  -5 6101.31 1460.61   3
   2  -1  -5 1930.48 919.389   3
   2   1  -5 2798.39 935.290   3
   1  -1  -5 6840.44 1791.17   3
  -1   1   5 10800.3 1579.39   1
   0   1   5 146758. 6267.27   1
   0  -1   5 141861. 7457.57   1
   1  -1   5 2799.00 1058.24   1
   1   1   5 706.686 530.361   1
   2   1   5 1491.36 721.591   1
   2  -1   5 984.403 622.620   1
   3   1   5 3551.57 1199.36   1
   3  -1   5 3558.07 1302.50   1
   4   1   5 137706. 8182.56   1
   4  -1   5 144602. 8718.55   1
   5  -1   5 30302.2 4181.27   1
   5   1   5 27315.0 3880.21   1
   6  -1   5 7826.79 2210.87   1
   6   1   5 12495.5 2796.52   1
   7   1   5 10698.0 2783.31   1
   7  -1   5 6732.30 2225.24   1
   8   1   5 8252.42 2552.59   1
   8  -1   5 9874.92 2849.87   1
  10  -2  -5 8874.68 2527.91   3
   9  -2  -5 133988. 9386.46   3
   8  -2  -5 12377.9 2720.35   3
   7   2  -5 7448.34 1522.03   3
   7  -2  -5 9446.61 2299.16   3
   6   2  -5 7641.55 1395.55   3
   6  -2  -5 9376.59 2215.20   3
   5   2  -5 42897.8 3203.61   3
   5  -2  -5 53206.9 5192.10   3
   4   2  -5 322642. 8705.37   3
   4  -2  -5 333603. 12833.7   3
   3   2  -5 13806.5 1890.31   3
   3  -2  -5 18651.8 3024.41   3
   2   2  -5 1978.56 761.740   3
  -2   2   5 1985.65 573.046   1
   2  -2  -5 1363.38 935.122   3
   1  -2  -5 477.051 474.682   3
  -1   2   5 1794.37 581.758   1
   0   2   5 17741.2 2139.49   1
   1   2   5 35704.9 3335.97   1
   2  -2   5 1444.86 894.137   1
   2   2   5 721.857 554.117   1
   3  -2   5 8754.97 2156.87   1
   3   2   5 7971.05 1847.22   1
   4   2   5-436.097 457.087   1
   4  -2   5 624.491 597.274   1
   5  -2   5 9399.85 2443.34   1
   5   2   5 9419.48 2284.95   1
   6  -2   5 1769.15 1188.61   1
   6   2   5 1346.31 910.231   1
   7  -2   5-116.037 299.270   1
   7   2   5 91.1318 262.105   1
   8  -2   5 1237.09 1012.52   1
   8   2   5 5057.84 2106.54   1
  10  -3  -5 1667.50 1117.95   3
   9  -3  -5 6415.76 2217.14   3
   8  -3  -5 4559.97 1700.70   3
   7  -3  -5 3625.11 1544.21   3
   6  -3  -5-503.693 536.696   3
   5  -3  -5 5218.56 1747.73   3
   4  -3  -5 50339.7 5240.79   3
   3  -3  -5-682.651 598.805   3
   2   3  -5 185.313 194.981   3
  -2   3   5 490.617 257.626   1
   2  -3  -5 379.243 488.290   3
   1  -3  -5 152998. 9148.72   3
  -1   3   5 156155. 5703.04   1
   0  -3  -5 1388.02 865.815   3
   0   3   5 121.116 149.902   1
   1   3   5 51563.5 4111.80   1
   2   3   5 1468.31 738.538   1
   3   3   5 4417.05 1442.80   1
   4   3   5 42892.9 4723.20   1
   4  -3   5 48152.9 5731.35   1
   5  -3   5 21991.3 4032.18   1
   5   3   5 17132.4 3186.77   1
   6   3   5 138.994 306.264   1
   6  -3   5-182.800 380.049   1
   7  -3   5 4318.66 1884.69   1
   7   3   5 8075.71 2420.77   1
   8  -3   5 31005.1 5369.35   1
   9  -4  -5 12808.1 3125.43   3
   8  -4  -5 21096.8 3896.51   3
   7  -4  -5 7737.13 2290.20   3
   6  -4  -5 15337.7 3194.16   3
   5  -4  -5 8606.85 2329.52   3
   4  -4  -5 14415.0 2956.15   3
   3  -4  -5 13276.9 2786.20   3
   2  -4  -5 2514.27 1195.82   3
   1  -4  -5 121710. 8553.71   3
   0  -4  -5 11434.6 2654.40   3
   0   4   5 13398.4 2004.57   1
  -1  -4  -5 32784.1 4538.40   3
   1   4   5 24720.0 3013.68   1
   2   4   5 3806.59 1307.35   1
   3   4   5 2526.90 1097.80   1
  -3   4  -5 550.471 645.375   2
   4   4   5 8146.79 2145.77   1
   5   4   5 7481.61 2155.25   1
   6   4   5 742.243 719.808   1
   7   4   5-117.245 305.698   1
   7  -5  -5 10181.1 2807.42   3
   6  -5  -5 2393.67 1273.51   3
   5  -5  -5 5743.90 1950.73   3
   4  -5  -5 8979.02 2427.95   3
   3  -5  -5 20815.2 3614.58   3
   2  -5  -5 1072.97 979.193   3
   1  -5  -5 721.482 673.511   3
   0  -5  -5 1315.97 970.415   3
  -1  -5  -5 93282.6 8005.97   3
  -2  -5  -5 33309.1 4904.13   3
   2   5   5 24119.0 3424.06   1
  -2   5  -5 25158.0 3741.13   2
  -3  -5  -5 9602.92 2599.58   3
   3   5   5 14719.6 2862.33   1
  -3   5  -5 18855.8 3198.80   2
   4   5   5 1247.72 885.340   1
   5   5   5 635.721 658.306   1
   6   5   5 6405.07 2202.50   1
   6  -6  -5 14500.4 3363.57   3
   5  -6  -5 997.567 841.505   3
   4  -6  -5 543.535 614.871   3
   3  -6  -5 5802.72 2066.70   3
   2  -6  -5 33422.3 4813.96   3
   1  -6  -5 13928.9 3126.02   3
   0  -6  -5-1404.71 980.175   3
  -1   6  -5 33683.1 4787.28   2
  -1  -6  -5 33894.5 4950.55   3
  -2   6  -5 27801.8 4331.70   2
  -2  -6  -5 27762.4 4624.29   3
  -3   6  -5 5501.14 2056.56   2
   4   6   5 3706.12 1584.76   1
   5   6   5 3347.30 1588.14   1
   4  -7  -5 497.240 618.371   3
   3  -7  -5-504.215 608.894   3
  11   0  -6 3048.52 1418.51   3
  10   0  -6 25067.1 3937.96   3
   9   0  -6 399.818 466.401   3
   8   0  -6 1691.23 920.216   3
   7   0  -6 7514.95 1934.12   3
   6   0  -6 79222.0 6127.77   3
   5   0  -6 132424. 7831.35   3
   4   0  -6 2516.87 1003.07   3
   3   0  -6 23650.9 3389.73   3
   2   0  -6 12872.5 2524.86   3
  -1   0   6 307591. 10711.5   1
   0   0   6 13106.5 2332.27   1
   1   0   6 593.596 633.970   1
   2   0   6 4725.90 1501.14   1
   3   0   6 407444. 14494.7   1
   4   0   6 308948. 13278.9   1
   5   0   6 32157.2 4536.42   1
   6   0   6 2299.86 1249.96   1
   7   0   6 583.410 672.362   1
  11  -1  -6-404.498 542.461   3
  10  -1  -6 123874. 9312.94   3
   9   1  -6 61835.9 5546.39   3
   9  -1  -6 61515.6 6298.57   3
   8   1  -6 1601.98 832.606   3
   8  -1  -6 1241.14 836.797   3
   7   1  -6 764.300 552.813   3
   7  -1  -6-564.809 550.953   3
   6   1  -6 13684.6 2320.44   3
   6  -1  -6 15269.8 2849.71   3
   5   1  -6 94151.5 6061.10   3
   5  -1  -6 84598.7 6610.40   3
   4   1  -6 334.519 344.105   3
   4  -1  -6 204.154 323.209   3
   3  -1  -6 2292.09 1075.09   3
   3   1  -6 1138.68 664.407   3
   2  -1  -6 21946.2 3434.47   3
   2   1  -6 31640.9 3770.54   3
   1  -1  -6 26579.3 3820.31   3
  -1   1   6 23493.5 2697.13   1
   0  -1   6 1180.13 726.596   1
   0   1   6 1763.47 782.990   1
   1   1   6 1239.58 673.708   1
   1  -1   6 1980.52 950.457   1
   2   1   6 396.903 407.972   1
   2  -1   6 9.35361 90.0712   1
   3   1   6 17295.9 2902.12   1
   3  -1   6 15117.5 2925.45   1
   4   1   6 28177.9 3959.01   1
   4  -1   6 31902.9 4467.33   1
   5  -1   6 2802.73 1353.09   1
   5   1   6-59.1324 192.782   1
   6   1   6 1405.03 1121.11   1
   6  -1   6 1244.76 949.407   1
   7   1   6 1267.97 982.355   1
   7  -1   6 139.293 344.307   1
  10  -2  -6 16495.0 3503.38   3
   9  -2  -6 3111.75 1444.34   3
   8  -2  -6 114.647 634.491   3
   7  -2  -6 702.914 647.107   3
   6  -2  -6 1519.73 931.310   3
   5   2  -6 157990. 6972.06   3
   5  -2  -6 151471. 9356.79   3
   4   2  -6 56262.3 4226.16   3
   4  -2  -6 54475.8 5652.61   3
   3   2  -6 21795.8 2772.01   3
   3  -2  -6 27440.8 3938.98   3
   2  -2  -6 39157.1 4758.22   3
   2   2  -6 28246.2 3397.27   3
  -2   2   6 33110.1 2738.28   1
   1  -2  -6 813.545 761.750   3
  -1   2   6 556.017 375.691   1
   0   2   6 17325.5 2367.48   1
   1   2   6 6034.29 1528.11   1
   2   2   6 7669.96 1818.77   1
   2  -2   6 9227.44 2436.99   1
   3   2   6 34324.6 4149.06   1
   3  -2   6 34226.3 4705.04   1
   4  -2   6 8934.98 2496.12   1
   4   2   6 9623.40 2332.53   1
   5  -2   6 13.5485 131.146   1
   5   2   6 311.675 439.036   1
   6  -2   6 475.695 616.318   1
   6   2   6-3.22818 588.998   1
   7  -2   6 28643.7 5041.71   1
   7   2   6 30285.8 4952.77   1
   9  -3  -6-48.1059 262.353   3
   8  -3  -6 2664.01 1436.47   3
   7  -3  -6 110.268 281.359   3
   6  -3  -6 11626.0 2853.27   3
   5  -3  -6 49839.5 5590.05   3
   4  -3  -6 25182.1 3973.23   3
   3  -3  -6 7548.26 2175.33   3
   2  -3  -6 96060.9 7755.42   3
   1  -3  -6 135690. 9289.48   3
  -1   3   6 126070. 5702.90   1
   0  -3  -6 26039.9 4143.64   3
   0   3   6 25307.3 2850.64   1
   1   3   6 2108.93 867.995   1
   2   3   6 11972.9 2322.44   1
   3   3   6 5123.57 1645.95   1
   4   3   6 26860.2 3949.88   1
   4  -3   6 29634.8 4873.98   1
   5   3   6 6361.73 2025.44   1
   5  -3   6 6051.56 2217.54   1
   6  -3   6 6517.25 2525.60   1
   6   3   6 6268.71 2136.84   1
   8  -4  -6-3.49051 78.8007   3
   7  -4  -6 1505.83 1037.96   3
   6  -4  -6 28976.8 4546.63   3
   5  -4  -6 1406.28 808.953   3
   4  -4  -6 10207.4 2598.31   3
   3  -4  -6 669.783 891.429   3
   2  -4  -6 76329.9 7159.80   3
   1  -4  -6 4584.54 1735.58   3
   0  -4  -6 14316.3 3174.30   3
  -1  -4  -6 5294.17 1930.71   3
   1   4   6 1093.82 664.497   1
   2   4   6-330.058 389.409   1
   3   4   6 1161.77 779.345   1
   4   4   6 1297.39 730.314   1
   5   4   6 5536.57 1923.19   1
   6   4   6 3052.54 1513.22   1
   7  -5  -6 248.950 311.474   3
   6  -5  -6 6508.20 2157.65   3
   5  -5  -6 6952.68 2231.38   3
   4  -5  -6 40091.3 5374.14   3
   3  -5  -6 412.823 544.009   3
   2  -5  -6 5671.57 2002.96   3
   1  -5  -6 2047.38 1268.26   3
   0  -5  -6 29731.3 4801.71   3
  -1  -5  -6 9377.91 2651.90   3
  -2  -5  -6-241.917 441.816   3
  -3  -5  -6 4038.55 1715.10   3
   3   5   6 796.491 673.351   1
   4   5   6-1032.37 817.360   1
   5   5   6 595.115 658.924   1
   5  -6  -6-1279.18 999.913   3
   4  -6  -6 2632.94 1562.31   3
   3  -6  -6 13236.1 3229.39   3
   2  -6  -6 19087.8 3924.05   3
   1  -6  -6 2029.71 1249.17   3
   0  -6  -6 49694.6 6308.97   3
  -1   6  -6 13470.7 3129.69   2
  -1  -6  -6 10960.6 3050.64   3
  -2   6  -6 29020.5 4561.94   2
  -2  -6  -6 25738.8 4753.02   3
  11   0  -7 158.525 337.954   3
  10   0  -7 907.176 840.012   3
   9   0  -7-357.147 535.678   3
   8   0  -7 156.501 299.205   3
   7   0  -7 8788.89 2267.06   3
   6   0  -7 205.085 330.195   3
   5   0  -7 391.742 458.099   3
   4   0  -7-317.807 415.251   3
   3   0  -7 1457.56 893.607   3
   2   0  -7 968.168 746.469   3
   0   0   7 4648.56 1601.71   1
   1   0   7-39.0568 144.817   1
   2   0   7-819.140 663.375   1
   3   0   7 315.174 434.752   1
   4   0   7 708.490 673.312   1
   5   0   7-462.365 574.653   1
   6   0   7 153.529 350.483   1
  10  -1  -7 6027.48 2053.56   3
   9  -1  -7 5422.03 1920.61   3
   8   1  -7 5904.64 1713.89   3
   8  -1  -7 3821.44 1628.95   3
   7   1  -7 7276.28 1856.86   3
   7  -1  -7 11019.0 2703.25   3
   6   1  -7 15191.4 2666.65   3
   6  -1  -7 22309.8 3705.57   3
   5   1  -7 483.504 467.372   3
   5  -1  -7 619.818 426.972   3
   4   1  -7 1203.02 752.893   3
   4  -1  -7-494.281 761.582   3
   3  -1  -7 551.373 1063.30   3
   3   1  -7 838.971 645.074   3
   2  -1  -7 30660.1 4418.73   3
   2   1  -7 29772.1 4057.37   3
   1  -1  -7 8584.43 2323.96   3
  -1   1   7 7865.88 1770.56   1
   0   1   7 8431.25 1915.94   1
   1  -1   7 15291.5 2959.77   1
   1   1   7 17172.7 2819.98   1
   2  -1   7 19743.4 3547.37   1
   2   1   7 19007.1 3108.52   1
   3   1   7 90208.4 7187.73   1
   3  -1   7 100660. 8173.64   1
   4  -1   7 857.013 655.627   1
   4   1   7 766.909 688.760   1
   5  -1   7-467.510 598.842   1
   5   1   7 481.361 578.247   1
   6  -1   7 994.772 910.720   1
   6   1   7 885.016 822.198   1
   9  -2  -7-289.281 464.070   3
   8  -2  -7 1947.80 1156.92   3
   7  -2  -7-831.974 746.460   3
   6  -2  -7 55985.6 6143.68   3
   5  -2  -7 26626.5 4200.71   3
   4   2  -7 738.337 541.238   3
   4  -2  -7 382.777 495.621   3
   3  -2  -7 9316.73 2504.61   3
   3   2  -7 17139.1 2788.44   3
   2  -2  -7 51385.5 5868.22   3
   2   2  -7 43952.7 4662.89   3
   1  -2  -7 644.470 658.463   3
  -1   2   7 3073.79 1037.27   1
   0   2   7 94.9789 168.158   1
   1   2   7 349.240 385.795   1
   2  -2   7 34916.8 4929.69   1
   2   2   7 27096.1 3666.93   1
   3   2   7 16417.6 3065.92   1
   3  -2   7 23365.3 4195.57   1
   4   2   7 2519.68 1311.21   1
   4  -2   7 4582.46 1855.11   1
   5   2   7-532.239 604.494   1
   5  -2   7 423.303 601.387   1
   6  -2   7 14852.3 3758.89   1
   6   2   7 17910.6 3802.75   1
   8  -3  -7 87.8271 262.925   3
   7  -3  -7 25379.7 4356.24   3
   6  -3  -7 49306.5 5971.38   3
   5  -3  -7 57425.5 6385.72   3
   4  -3  -7 9787.84 2658.56   3
   3  -3  -7 97338.3 8355.86   3
   2  -3  -7 51768.5 6106.50   3
   1  -3  -7 58991.2 6639.21   3
   0  -3  -7-154.706 654.077   3
   0   3   7 54.0694 104.200   1
   1   3   7 2906.57 1103.44   1
   2   3   7 24649.1 3526.67   1
   3   3   7 20204.7 3403.29   1
   4   3   7 4384.79 1759.18   1
   5  -3   7-47.7982 216.795   1
   5   3   7-340.481 495.043   1
   6   3   7 3214.68 1588.76   1
   7  -4  -7 9175.23 2711.89   3
   6  -4  -7 4674.03 1946.99   3
   5  -4  -7 810.136 775.081   3
   4  -4  -7 651.913 887.452   3
   3  -4  -7 3100.93 1510.37   3
   2  -4  -7 19585.0 3919.54   3
   1  -4  -7 3033.31 1488.05   3
   0  -4  -7 7611.62 2380.05   3
  -1  -4  -7 2406.63 1130.79   3
  -2  -4  -7 1525.24 1089.42   3
   2   4   7 3952.28 1390.34   1
   3   4   7 12398.6 2719.95   1
   4   4   7 86.1343 242.103   1
   5   4   7 1801.64 1077.83   1
   5  -5  -7 14002.5 3330.34   3
   4  -5  -7 17168.2 3751.99   3
   3  -5  -7 6122.40 2294.92   3
   2  -5  -7 1261.28 1000.22   3
   1  -5  -7 17924.8 3894.59   3
   0  -5  -7 10519.7 2932.18   3
  -1  -5  -7 14336.0 3601.28   3
  -2  -5  -7 1769.51 1429.85   3
  -3  -5  -7-289.282 527.198   3
   2  -6  -7 694.395 766.820   3
   1  -6  -7 23657.3 4637.30   3
   0  -6  -7 58150.3 7298.77   3
  -1  -6  -7 8895.33 2991.80   3
   9   0  -8-517.921 578.226   3
   8   0  -8 10051.3 2554.61   3
   7   0  -8 121239. 8731.07   3
   6   0  -8 6583.31 1995.33   3
   5   0  -8 6691.18 2006.16   3
   4   0  -8 5078.29 1875.47   3
   3   0  -8 111987. 8674.24   3
   2   0  -8 57038.3 6368.37   3
   1   0  -8 16019.2 3413.96   3
   0   0   8 3332.46 1459.82   1
   1   0   8 15408.2 3020.43   1
   2   0   8 101023. 8150.81   1
   3   0   8 1687.84 1071.32   1
   4   0   8-152.515 343.683   1
   5   0   8 13084.5 3294.25   1
  10  -1  -8-242.608 438.787   3
   9  -1  -8-720.912 718.438   3
   8  -1  -8-564.870 631.977   3
   7  -1  -8 2396.88 1274.48   3
   6   1  -8 2243.46 1092.77   3
   6  -1  -8 9490.00 2500.83   3
   5   1  -8 3452.22 1366.35   3
   5  -1  -8 2076.38 1182.95   3
   4   1  -8 1856.08 1035.05   3
   4  -1  -8 1137.34 876.536   3
   3  -1  -8 16389.3 3454.71   3
   3   1  -8 16932.5 3291.42   3
   2  -1  -8 5544.70 2077.76   3
   2   1  -8 6880.64 2126.48   3
   1  -1  -8-888.248 812.980   3
  -1   1   8 1451.37 968.641   1
   0   1   8 900.396 663.041   1
   1   1   8 60952.9 5794.87   1
   1  -1   8 60779.7 6452.12   1
   2   1   8 177003. 10332.9   1
   2  -1   8 158603. 10807.7   1
   3  -1   8 1237.81 965.455   1
   3   1   8 1754.93 1053.97   1
   4   1   8 8659.19 2512.48   1
   4  -1   8 5754.24 2267.99   1
   5   1   8 7348.61 2421.71   1
   5  -1   8 2858.47 1579.01   1
   9  -2  -8 650.555 718.941   3
   8  -2  -8 1216.26 959.124   3
   7  -2  -8 4443.42 1812.06   3
   6  -2  -8 27205.7 4511.44   3
   5  -2  -8 16169.0 3518.55   3
   4  -2  -8 24038.4 4258.25   3
   3  -2  -8 94384.5 8546.02   3
   2  -2  -8 953.662 910.978   3
   2   2  -8 799.980 683.751   3
   1  -2  -8-1082.15 921.873   3
   0  -2  -8 1006.84 853.264   3
   0   2   8 1678.49 920.980   1
   1   2   8 18660.9 3083.52   1
   2   2   8 8388.59 2203.06   1
   3  -2   8 5123.76 2137.03   1
   3   2   8 3991.44 1600.06   1
   4  -2   8 554.488 706.321   1
   4   2   8 711.106 701.226   1
   5   2   8 5189.76 2010.63   1
   7  -3  -8 47607.7 6313.07   3
   6  -3  -8 69449.2 7454.58   3
   5  -3  -8 328.347 504.874   3
   4  -3  -8 30605.6 5029.90   3
   3  -3  -8 54203.7 6658.96   3
   2  -3  -8 6869.93 2329.05   3
   1  -3  -8 1197.05 992.724   3
   0  -3  -8 187.020 230.593   3
  -1  -3  -8 1273.78 965.985   3
   2   3   8 7488.99 2059.14   1
   3   3   8 7120.21 2108.15   1
   4   3   8 2433.31 1301.23   1
   5   3   8 1538.39 1093.51   1
   6  -4  -8 18031.1 3940.93   3
   5  -4  -8 1022.46 916.784   3
   4  -4  -8 2673.77 1490.73   3
   3  -4  -8 828.604 830.092   3
   2  -4  -8 24390.8 4580.29   3
   1  -4  -8 4492.93 1985.55   3
   0  -4  -8 2330.69 1444.63   3
  -1  -4  -8 1762.86 1256.56   3
  -2  -4  -8 5421.16 2114.61   3
   2  -5  -8-769.051 831.494   3
   1  -5  -8 958.200 933.149   3
   0  -5  -8 8525.78 2811.03   3
   8   0  -9 114.255 290.437   3
   7   0  -9 210.040 381.655   3
   6   0  -9 287.832 447.080   3
   5   0  -9-132.730 316.143   3
   4   0  -9 1303.72 971.267   3
   3   0  -9 360.687 526.927   3
   2   0  -9-220.044 424.102   3
   1   0  -9 58.3854 666.460   3
   0   0   9 224.924 393.314   1
   1   0   9 560.186 625.556   1
   2   0   9 531.399 380.916   1
   3   0   9 466.337 611.102   1
   4   0   9 548.588 689.108   1
   9  -1  -9-682.108 738.598   3
   8  -1  -9 28444.7 4753.04   3
   7  -1  -9 2433.41 1359.79   3
   6  -1  -9 1054.01 891.632   3
   5   1  -9 1044.55 815.646   3
   5  -1  -9 1519.30 1090.45   3
   4   1  -9 3308.98 1479.03   3
   4  -1  -9 885.160 832.119   3
   3  -1  -9 10275.0 2937.66   3
   3   1  -9 7173.57 2239.15   3
   2  -1  -9-1577.83 1148.62   3
   2   1  -9 1724.28 1136.85   3
   1  -1  -9 2394.79 1439.51   3
   1   1  -9 2199.39 1318.86   3
   0   1   9 7334.22 2026.85   1
   1   1   9 24486.0 4009.30   1
   2  -1   9 8333.60 2604.43   1
   2   1   9 3929.57 1633.45   1
   3   1   9 1603.46 1088.18   1
   3  -1   9 2959.28 1681.62   1
   4   1   9 1433.93 1075.32   1
   7  -2  -9-973.901 895.852   3
   6  -2  -9-330.717 520.665   3
   5  -2  -9 7606.36 2525.59   3
   4  -2  -9 83976.7 8475.23   3
   3  -2  -9 13873.1 3498.56   3
   2  -2  -9 10707.1 3142.64   3
   1  -2  -9 6063.01 2456.96   3
   0  -2  -9 8855.92 2879.13   3
   2   2   9 1662.62 1035.40   1
   3   2   9 978.273 834.822   1
   4   2   9 7640.15 2426.11   1
   6  -3  -9 3519.54 1793.49   3
   5  -3  -9 1532.56 1152.79   3
   4  -3  -9 49791.0 6741.79   3
   3  -3  -9 4274.80 1934.73   3
   2  -3  -9 2885.24 1613.50   3
   1  -3  -9 846.736 891.947   3
   0  -3  -9 1799.76 1327.22   3
  -1  -3  -9-1038.13 1032.67   3
   7   0 -10 701.178 735.597   3
   6   0 -10 3090.71 1264.26   3
   5   0 -10 4494.41 1926.30   3
   4   0 -10 7432.99 2482.95   3
   3   0 -10 387.554 589.832   3
   2   0 -10 5712.21 2287.41   3
   1   0 -10 9305.46 3090.44   3
   1   0  10 1207.11 986.687   1
   2   0  10-117.646 343.566   1
   7  -1 -10 1542.28 1139.94   3
   6  -1 -10-1938.18 1278.59   3
   5  -1 -10 77051.4 8425.84   3
   4  -1 -10 52129.5 6947.92   3
   3  -1 -10 642.961 771.388   3
   3   1 -10 2825.59 1511.92   3
   2  -1 -10-870.215 910.339   3
   2   1 -10-936.885 903.188   3
   1  -1 -10 14133.8 3832.78   3
   1   1 -10 11132.0 3285.09   3
   0  -1 -10 104444. 10674.4   3
   1   1  10 9011.29 2576.60   1
   2   1  10 7521.40 2535.53   1
   3   1  10 16773.1 3768.17   1
   5  -2 -10 54894.8 7253.93   3
   4  -2 -10 166.590 396.770   3
   3  -2 -10 947.123 954.899   3
   2  -2 -10 2962.34 1704.26   3
   1  -2 -10 4823.22 2234.57   3
   5   0 -11-348.895 569.688   3
   4   0 -11-532.993 706.823   3
   3   0 -11 382.138 618.506   3
   2   0 -11 701.968 594.715   3
   1   0 -11 967.030 1036.49   3
   1   1 -11 2301.98 1562.19   3
   0   1 -11 3234.79 1903.47   3
   0   0   0    0.00    0.00   0
TITL Ml26b in P2(1)/c
REM P2(1)/c (#14 in standard setting)
CELL 0.71073   9.262702   5.992344   8.408789  90.0000 102.6081  90.0000
ZERR    2.00   0.001075   0.000604   0.001157   0.0000   0.0139   0.0000
LATT  1
SYMM -x, y+1/2,-z+1/2
SFAC C H N
UNIT 20.00 20.00 4.00
TREF
HKLF 4
END
;
_shelx_hkl_checksum              59125
loop_
_space_group_symop_operation_xyz
'x, y, z'
'-x, y+1/2, -z+1/2'
'-x, -y, -z'
'x, -y-1/2, z-1/2'
loop_
_atom_site_label
_atom_site_type_symbol
_atom_site_fract_x
_atom_site_fract_y
_atom_site_fract_z
_atom_site_U_iso_or_equiv
_atom_site_adp_type
_atom_site_occupancy
_atom_site_site_symmetry_order
_atom_site_calc_flag
_atom_site_refinement_flags_posn
_atom_site_refinement_flags_adp
C1 C 0.45088(19) 0.2114(3) 0.5380(2) 0.0158(5) Uani 1 1 d . .
H1 H 0.4178 0.3544 0.5634 0.019 Uiso 1 1 calc R U
C2 C 0.58955(19) 0.1348(3) 0.6205(2) 0.0162(5) Uani 1 1 d . .
C3 C 0.6832(2) 0.2640(3) 0.7437(2) 0.0187(5) Uani 1 1 d . .
H3 H 0.6513 0.4068 0.7712 0.022 Uiso 1 1 calc R U
C4 C 0.8177(2) 0.1855(4) 0.8224(2) 0.0209(5) Uani 1 1 d . .
H4 H 0.8781 0.2733 0.9050 0.025 Uiso 1 1 calc R U
C5 C 0.36011(19) 0.0817(3) 0.4189(2) 0.0158(5) Uani 1 1 d . .
C6 C 0.2173(2) 0.1557(3) 0.3344(2) 0.0193(5) Uani 1 1 d . .
H6 H 0.1816 0.2970 0.3598 0.023 Uiso 1 1 calc R U
C7 C 0.1317(2) 0.0256(3) 0.2175(3) 0.0216(5) Uani 1 1 d . .
H7 H 0.0370 0.0774 0.1624 0.026 Uiso 1 1 calc R U
loop_
_atom_site_aniso_label
_atom_site_aniso_U_11
_atom_site_aniso_U_22
_atom_site_aniso_U_33
_atom_site_aniso_U_23
_atom_site_aniso_U_13
_atom_site_aniso_U_12
C1 0.0179(9) 0.0126(9) 0.0185(10) 0.0013(8) 0.0074(8) 0.0007(7)
C2 0.0175(9) 0.0163(10) 0.0157(10) 0.0009(8) 0.0056(8) -0.0012(7)
C3 0.0191(9) 0.0181(10) 0.0201(11) -0.0010(8) 0.0068(8) -0.0040(8)
C4 0.0206(10) 0.0237(11) 0.0176(11) -0.0015(8) 0.0023(8) -0.0046(8)
C5 0.0159(9) 0.0172(10) 0.0155(10) 0.0019(8) 0.0062(7) -0.0001(7)
C6 0.0185(10) 0.0187(10) 0.0216(11) 0.0036(8) 0.0062(8) 0.0027(8)
C7 0.0175(10) 0.0240(11) 0.0227(12) 0.0023(9) 0.0034(8) 0.0003(8)
loop_
_atom_type_symbol
_atom_type_description
_atom_type_scat_dispersion_real
_atom_type_scat_dispersion_imag
_atom_type_scat_source
C C 0.0033 0.0016 'International Tables Vol C Tables 4.2.6.8 and 6.1.1.4'
H H 0.0000 0.0000 'International Tables Vol C Tables 4.2.6.8 and 6.1.1.4'
loop_
_geom_angle_atom_site_label_1
_geom_angle_atom_site_label_2
_geom_angle_atom_site_label_3
_geom_angle
_geom_angle_site_symmetry_3
C5 C1 C2 121.18(18) .
C1 C2 C3 122.02(18) .
C1 C2 C5 119.35(17) 3_656
C3 C2 C5 118.63(17) 3_656
C4 C3 C2 120.89(19) .
C3 C4 C7 120.61(19) 3_656
C1 C5 C6 122.09(18) .
C1 C5 C2 119.47(17) 3_656
C6 C5 C2 118.44(18) 3_656
C7 C6 C5 120.70(19) .
C6 C7 C4 120.71(18) 3_656
loop_
_geom_bond_atom_site_label_1
_geom_bond_atom_site_label_2
_geom_bond_distance
_geom_bond_site_symmetry_2
C1 C5 1.395(3) .
C1 C2 1.397(2) .
C2 C3 1.426(3) .
C2 C5 1.441(3) 3_656
C3 C4 1.360(3) .
C4 C7 1.415(3) 3_656
C5 C6 1.428(2) .
C5 C2 1.441(3) 3_656
C6 C7 1.365(3) .
C7 C4 1.415(3) 3_656
