#------------------------------------------------------------------------------
#$Date: 2015-09-05 23:34:09 +0300 (Sat, 05 Sep 2015) $
#$Revision: 154543 $
#$URL: svn://www.crystallography.net/cod/cif/4/51/33/4513320.cif $
#------------------------------------------------------------------------------
#
# This file is available in the Crystallography Open Database (COD),
# http://www.crystallography.net/
#
# All data on this site have been placed in the public domain by the
# contributors.
#
data_4513320
loop_
_publ_author_name
'Lusi, Matteo'
'Vitorica-Yrezabal, Inigo J.'
'Zaworotko, Michael J.'
_publ_section_title
;
 Expanding the Scope of Molecular Mixed Crystals Enabled by Three
 Component Solid Solutions
;
_journal_issue                   8
_journal_name_full               'Crystal Growth &amp; Design'
_journal_page_first              4098
_journal_paper_doi               10.1021/acs.cgd.5b00685
_journal_volume                  15
_journal_year                    2015
_chemical_formula_sum            'C7 H5'
_chemical_formula_weight         89.11
_chemical_name_systematic
;
 ?
;
_space_group_crystal_system      monoclinic
_space_group_IT_number           14
_space_group_name_Hall           '-P 2ybc'
_space_group_name_H-M_alt        'P 1 21/c 1'
_symmetry_space_group_name_Hall  '-P 2ybc'
_symmetry_space_group_name_H-M   'P 1 21/c 1'
_atom_sites_solution_hydrogens   geom
_audit_creation_method           SHELXL-2014
_cell_angle_alpha                90
_cell_angle_beta                 102.478(7)
_cell_angle_gamma                90
_cell_formula_units_Z            4
_cell_length_a                   9.2689(6)
_cell_length_b                   5.9954(3)
_cell_length_c                   8.4104(6)
_cell_measurement_temperature    100(2)
_cell_volume                     456.33(5)
_computing_structure_refinement  'SHELXL-2014 (Sheldrick, 2014)'
_diffrn_ambient_temperature      100(2)
_diffrn_measured_fraction_theta_full 0.984
_diffrn_measured_fraction_theta_max 0.875
_diffrn_radiation_type           MoK\a
_diffrn_radiation_wavelength     0.71073
_diffrn_reflns_av_R_equivalents  0.0248
_diffrn_reflns_av_unetI/netI     0.0474
_diffrn_reflns_laue_measured_fraction_full 0.984
_diffrn_reflns_laue_measured_fraction_max 0.875
_diffrn_reflns_limit_h_max       12
_diffrn_reflns_limit_h_min       -11
_diffrn_reflns_limit_k_max       7
_diffrn_reflns_limit_k_min       -8
_diffrn_reflns_limit_l_max       8
_diffrn_reflns_limit_l_min       -11
_diffrn_reflns_number            1850
_diffrn_reflns_point_group_measured_fraction_full 0.984
_diffrn_reflns_point_group_measured_fraction_max 0.875
_diffrn_reflns_theta_full        25.242
_diffrn_reflns_theta_max         30.337
_diffrn_reflns_theta_min         4.077
_exptl_absorpt_coefficient_mu    0.073
_exptl_absorpt_correction_T_max  1.36
_exptl_absorpt_correction_T_min  0.75
_exptl_absorpt_correction_type   multi-scan
_exptl_absorpt_process_details   sadabs
_exptl_crystal_colour            colourless
_exptl_crystal_density_diffrn    1.297
_exptl_crystal_description       prism
_exptl_crystal_F_000             188
_refine_diff_density_max         0.357
_refine_diff_density_min         -0.221
_refine_diff_density_rms         0.049
_refine_ls_extinction_method     none
_refine_ls_goodness_of_fit_ref   1.117
_refine_ls_hydrogen_treatment    constr
_refine_ls_matrix_type           full
_refine_ls_number_parameters     64
_refine_ls_number_reflns         1202
_refine_ls_number_restraints     0
_refine_ls_restrained_S_all      1.117
_refine_ls_R_factor_all          0.0611
_refine_ls_R_factor_gt           0.0521
_refine_ls_shift/su_max          0.000
_refine_ls_shift/su_mean         0.000
_refine_ls_structure_factor_coef Fsqd
_refine_ls_weighting_details
'w=1/[\s^2^(Fo^2^)+(0.0544P)^2^+0.1051P] where P=(Fo^2^+2Fc^2^)/3'
_refine_ls_weighting_scheme      calc
_refine_ls_wR_factor_gt          0.1239
_refine_ls_wR_factor_ref         0.1332
_reflns_Friedel_coverage         0.000
_reflns_number_gt                1012
_reflns_number_total             1202
_reflns_threshold_expression     'I > 2\s(I)'
_cod_data_source_file            cg5b00685_si_016.cif
_cod_data_source_block           H:\#15
_cod_depositor_comments
'Adding full bibliography for 4513301--4513322.cif.'
_cod_database_code               4513320
_shelx_space_group_comment
;
The symmetry employed for this shelxl refinement is uniquely defined
by the following loop, which should always be used as a source of
symmetry information in preference to the above space-group names.
They are only intended as comments.
;
_shelxl_version_number           2014-3
_shelx_res_file
;
REM  CF solution in P21/c
REM R1 =  0.0617 for     700 Fo > 4sig(Fo)  and  0.0918 for all    1025 data
REM     65 parameters refined using      0 restraints
REM  ml025a in P21/c #14
REM R1 =  0.0521 for    1012 Fo > 4sig(Fo)  and  0.0611 for all    1202 data
REM     65 parameters refined using      0 restraints
REM Highest difference peak  0.360,  deepest hole -0.222,  1-sigma level  0.049
REM  ml025a in P21/c #14
REM R1 =  0.0521 for    1012 Fo > 4sig(Fo)  and  0.0611 for all    1202 data
REM     65 parameters refined using      0 restraints
REM Highest difference peak  0.357,  deepest hole -0.221,  1-sigma level  0.049
REM  ml025a in P21/c #14
REM R1 =  0.0521 for    1012 Fo > 4sig(Fo)  and  0.0611 for all    1202 data
REM     65 parameters refined using      0 restraints
REM Highest difference peak  0.357,  deepest hole -0.221,  1-sigma level  0.049
REM  ml025a in P21/c #14
REM R1 =  0.0952 for    1012 Fo > 4sig(Fo)  and  0.1041 for all    1202 data
REM     29 parameters refined using      0 restraints
REM Highest difference peak  0.902,  deepest hole -0.317,  1-sigma level  0.110
REM  ml025a in P21/c #14
REM R1 =  0.0521 for    1012 Fo > 4sig(Fo)  and  0.0611 for all    1202 data
REM     64 parameters refined using      0 restraints
REM Highest difference peak  0.357,  deepest hole -0.221,  1-sigma level  0.049
TITL ml025a in P21/c #14
CELL 0.71073 9.2689 5.9954 8.4104 90.000 102.478 90.000
ZERR 4.0000 0.0006 0.0003 0.0006 0.000 0.007 0.000
LATT 1
SYMM -X, 0.5+Y, 0.5-Z
SFAC C H
UNIT 28 20
MERG 2
FMAP 2
GRID
PLAN 20
TEMP -173
BOND
L.S. 20
ACTA
WGHT    0.054400    0.105100
FVAR      25.84433
C1    1    0.451051    0.211013    0.538059    11.00000    0.01700    0.01191 =
         0.01588    0.00092    0.00695    0.00069
AFIX  43
H1    2    0.417980    0.353843    0.563738    11.00000   -1.20000
AFIX   0
C2    1    0.589510    0.134494    0.620293    11.00000    0.01595    0.01418 =
         0.01312    0.00062    0.00646   -0.00099
C3    1    0.682794    0.264241    0.743230    11.00000    0.01845    0.01645 =
         0.01641   -0.00242    0.00653   -0.00235
AFIX  43
H3    2    0.650588    0.406910    0.770412    11.00000   -1.20000
AFIX   0
C4    1    0.817434    0.186546    0.822258    11.00000    0.01841    0.02292 =
         0.01673   -0.00254    0.00276   -0.00460
AFIX  43
H4    2    0.877733    0.274692    0.904444    11.00000   -1.20000
AFIX   0
C5    1    0.360313    0.081516    0.418802    11.00000    0.01560    0.01399 =
         0.01322    0.00131    0.00592   -0.00020
C6    1    0.217471    0.155141    0.334361    11.00000    0.01661    0.01714 =
         0.01917    0.00136    0.00582    0.00164
AFIX  43
H6    2    0.181830    0.296258    0.360057    11.00000   -1.20000
AFIX   0
C7    1    0.131779    0.026253    0.217770    11.00000    0.01561    0.02356 =
         0.01926    0.00338    0.00290    0.00146
AFIX  43
H7    2    0.037435    0.078530    0.162683    11.00000   -1.20000
AFIX   0
HKLF 4

REM  ml025a in P21/c #14
REM R1 =  0.0521 for    1012 Fo > 4sig(Fo)  and  0.0611 for all    1202 data
REM     64 parameters refined using      0 restraints

END

WGHT      0.0544      0.1051

REM Highest difference peak  0.357,  deepest hole -0.221,  1-sigma level  0.049
Q1    1   0.3789 -0.0345  0.4128  11.00000  0.05    0.36
Q2    1   0.5195  0.1557  0.5841  11.00000  0.05    0.35
Q3    1   0.2983  0.1254  0.3649  11.00000  0.05    0.31
Q4    1   0.7561  0.2324  0.7692  11.00000  0.05    0.26
Q5    1   0.8301  0.0752  0.8013  11.00000  0.05    0.26
Q6    1   0.4056  0.1285  0.4874  11.00000  0.05    0.23
Q7    1   0.6300  0.1621  0.7127  11.00000  0.05    0.22
Q8    1   0.1735  0.0540  0.2967  11.00000  0.05    0.22
Q9    1   0.1976  0.0922  0.2612  11.00000  0.05    0.18
Q10   1   0.6590  0.2096  0.6505  11.00000  0.05    0.16
Q11   1   0.0764  0.0777  0.1177  11.00000  0.05    0.13
Q12   1   0.3232  0.0108  0.5556  11.00000  0.05    0.13
Q13   1   0.4437  0.0931  0.6612  11.00000  0.05    0.12
Q14   1   0.1743  0.3172  0.2631  11.00000  0.05    0.12
Q15   1   0.2522  0.2796  0.5387  11.00000  0.05    0.11
Q16   1   0.3567  0.2904  0.5779  11.00000  0.05    0.11
Q17   1   0.4758  0.1133  0.3563  11.00000  0.05    0.11
Q18   1   0.7395  0.2013  0.5778  11.00000  0.05    0.11
Q19   1  -0.0119  0.0834  0.0743  11.00000  0.05    0.11
Q20   1   0.0631  0.1673  0.0151  11.00000  0.05    0.11
;
_shelx_res_checksum              84696
_shelx_hkl_file
;
   2   0   0 335811. 4526.94   2
   3   0   0 155661. 3821.00   2
  -3   0   0 154955. 2286.14   3
  -4   0   0 439918. 4478.94   3
   4   0   0 436447. 7375.95   2
  -5   0   0 217081. 3545.08   3
   5   0   0 214041. 5863.27   2
  -6   0   0 38282.2 1660.23   3
   6   0   0 38601.6 2787.57   2
   7   0   0 3877.53 999.079   2
  -7   0   0 2977.23 514.501   3
   8   0   0 32164.1 3012.53   2
  -8   0   0 33484.2 1799.91   3
   9   0   0 54465.7 4228.31   2
  10   0   0 2303.38 944.294   2
  11   0   0 7357.29 1779.12   2
  12   0   0 22357.9 3314.38   2
   0   1   0 38.6959 32.7981   3
  -1  -1   0 63819.2 1506.59   3
  -1   1   0 64826.8 936.436   3
   1  -1   0 64659.1 894.211   3
  -2  -1   0 4366.21 269.667   1
  -2  -1   0 3982.44 433.037   3
  -3  -1   0 8571.22 712.825   3
   3   1   0 7976.18 905.537   2
  -4  -1   0 111625. 2830.42   3
   4   1   0 114543. 3883.19   2
  -4   1   0 108910. 1434.90   3
  -5  -1   0 174435. 3850.69   3
   5   1   0 178385. 5399.15   2
  -5   1   0 177588. 2278.62   3
   6   1   0 802.336 388.367   2
  -6   1   0 1001.79 196.424   3
  -6  -1   0 1402.71 380.164   3
  -7  -1   0 9118.86 1019.42   3
   7  -1   0 7908.97 1400.10   2
   7   1   0 8603.13 1451.17   2
  -8  -1   0 100898. 3645.86   3
   8   1   0 114790. 5638.29   2
   8  -1   0 108409. 5612.62   2
   9  -1   0 111616. 6145.74   2
  -9  -1   0 114241. 4111.53   3
   9   1   0 128425. 6460.80   2
  10  -1   0 125.035 225.338   2
  10   1   0 1004.30 603.841   2
  11   1   0 440.456 434.048   2
  11  -1   0 1426.60 938.695   2
   0  -2   0 445778. 4661.30   3
   1  -2   0 220493. 2836.74   3
  -1  -2   0 217897. 3613.17   3
   2  -2   0 44277.6 1053.76   3
  -2  -2   0 46963.6 1840.60   3
  -3  -2   0 22038.4 1358.24   3
  -3  -2   0 21583.1 716.871   1
  -4  -2   0 166968. 4063.19   3
  -5  -2   0 8618.84 982.836   3
  -6  -2   0 2701.74 584.259   3
  -7  -2   0-249.926 188.956   3
  -8  -2   0 232406. 6152.61   3
  -9  -2   0 15549.1 1693.01   3
   9  -2   0 16517.7 2446.24   2
  10  -2   0 8459.80 1885.10   2
  11  -2   0 2373.90 1037.71   2
   0  -3   0-31.3296 21.0223   3
  -1  -3   0 303277. 5080.67   3
   1  -3   0 293821. 4273.76   3
  -2  -3   0 3185.65 554.024   3
   2  -3   0 2802.25 380.903   3
  -3  -3   0 37508.0 2038.60   3
   3  -3   0 38926.2 1188.16   3
  -4  -3   0 149632. 4336.80   3
  -5  -3   0 190867. 5212.64   3
  -6  -3   0 14062.3 1492.24   3
  -7  -3   0 7545.90 1158.38   3
  -8  -3   0 16612.3 1819.72   3
  -9  -3   0 4003.11 939.691   3
  10  -3   0 1657.41 961.496   2
 -10  -3   0 580.079 452.091   3
  11  -3   0 1542.60 904.421   2
   0  -4   0 1057.86 346.344   3
   1  -4   0 23489.0 1451.75   3
  -1  -4   0 22100.0 1601.14   3
  -2  -4   0 90.7239 125.678   3
   2   4   0 30.5305 28.3538   1
   2   4   0 27.6008 45.6069   1
   2  -4   0 30.6069 77.7994   3
   3  -4   0 2608.23 410.996   3
  -3  -4   0 1703.16 474.110   3
  -4  -4   0 596.704 356.371   3
  -5  -4   0 190512. 5799.49   3
  -6  -4   0 51132.4 3166.13   3
  -7  -4   0 36618.5 2803.06   3
  -8  -4   0 6401.95 1242.31   3
  -9  -4   0 16681.0 2106.62   3
 -10  -4   0 15065.3 2093.64   3
 -11  -4   0-698.948 466.107   3
   0  -5   0 387.759 293.484   3
  -1  -5   0 210.510 239.877   3
   1  -5   0 62.2262 34.7326   3
   2  -5   0 1408.86 370.486   3
  -2  -5   0 783.778 360.297   3
  -3  -5   0 162195. 5403.38   3
  -4  -5   0 38813.6 2757.13   3
  -5  -5   0 7910.84 1331.62   3
  -6  -5   0 5041.39 1077.62   3
  -7  -5   0 12231.6 1781.40   3
  -8  -5   0 30560.5 2957.68   3
  -9  -5   0 11274.7 1896.72   3
   0  -6   0 4902.81 966.514   3
   1  -6   0 30364.4 2179.78   3
  -1  -6   0 29236.8 2330.02   3
  -2  -6   0 4465.49 926.843   3
  -3  -6   0 137750. 5508.14   3
  -4  -6   0 9555.84 1498.29   3
  -5  -6   0 38912.7 3186.10   3
  -6  -6   0 18239.0 2278.38   3
  -7  -6   0 3021.93 984.622   3
  -8  -6   0 144.547 229.899   3
   0  -7   0 2077.06 705.562   3
  -1  -7   0 9687.74 1509.35   3
  -2  -7   0 155.559 261.697   3
  -3  -7   0 1331.18 586.228   3
  -4  -7   0 2463.77 891.741   3
  -5  -7   0 1637.32 709.883   3
  -1  -8   0 3122.35 962.139   3
  -2  -8   0 320.399 355.656   3
  -3  -8   0 7785.13 1580.69   3
  12   0  -1 347.995 402.850   2
  11   0  -1-296.063 351.037   2
  10   0  -1 440.754 391.708   2
   9   0  -1 183.247 241.884   2
   8   0  -1 385.190 370.101   2
  -8   0   1 147.418 143.634   3
   7   0  -1 161.390 294.628   2
  -7   0   1 75.7739 128.162   3
   6   0  -1 122.063 195.042   2
  -6   0   1 190.174 100.363   3
  -5   0   1 19.3834 70.3244   3
   5   0  -1 1.79814 138.183   2
  -4   0   1-4.54964 25.0014   3
   4   0  -1 235.945 193.622   2
   3   0  -1 6.43515 119.274   2
   2   0  -1 47.4936 40.7188   1
   2   0  -1 179.322 147.418   2
  -1   0  -1-11.4682 11.7056   3
   1   0   1 21.7584 56.9009   2
   2   0   1 155.776 143.027   2
  -2   0  -1 33.3106 35.3451   3
   3   0   1 210.571 191.930   2
  -3   0  -1 37.8220 53.9076   3
   4   0   1 127.718 191.312   2
  -4   0  -1 397.957 159.163   3
  -5   0  -1 429.762 185.343   3
   5   0   1 229.931 306.994   2
  -6   0  -1 85.9808 81.1866   3
   6   0   1-48.5829 136.464   2
  -7   0  -1 140.711 115.756   3
   7   0   1 70.2625 138.607   2
   8   0   1 108.298 135.794   2
   9   0   1 733.253 517.051   2
  10   0   1 106.177 211.348   2
  11   0   1 183.008 294.124   2
  12   1  -1 576.607 519.352   2
  12  -1  -1 115.631 246.174   2
  11   1  -1 1016.09 640.430   2
  11  -1  -1 742.003 555.685   2
  10  -1  -1 17320.2 2574.33   2
  10   1  -1 16541.2 2470.31   2
  -9  -1   1 217.141 175.051   3
   9   1  -1 1344.78 631.181   2
   9  -1  -1 696.039 470.218   2
   8  -1  -1 570.378 528.990   2
  -8  -1   1 252.307 236.040   3
   8   1  -1 16.0199 78.5525   2
  -7   1   1 592.469 176.886   3
   7  -1  -1 878.046 510.587   2
  -7  -1   1 462.834 267.992   3
   7   1  -1 46.1986 108.913   2
  -6   1   1 21686.8 906.761   3
  -6  -1   1 19945.2 1412.22   3
   6   1  -1 21854.6 2049.13   2
  -5   1   1 155394. 2198.63   3
   5   1  -1 160782. 5003.77   2
  -5  -1   1 158914. 3705.64   3
   4   1  -1 23276.3 1705.74   2
  -4  -1   1 24470.1 1359.90   3
  -4   1   1 22823.6 764.666   3
   3   1  -1 1113.43 208.505   1
   3   1  -1 845.026 293.406   2
  -3  -1   1 1190.59 289.623   3
  -2   1   1 107672. 1473.81   3
   2   1  -1 106087. 1851.85   1
  -1  -1  -1 82027.5 1962.26   3
  -1  -1  -1 79708.7 1335.30   1
  -2  -1  -1 118140. 2620.70   3
   3  -1   1 280000. 2734.08   3
  -3  -1  -1 277648. 4403.41   3
   4  -1   1 229411. 2639.68   3
   4   1   1 218077. 5552.60   2
  -4  -1  -1 228613. 4364.71   3
  -5  -1  -1 68.4607 81.8596   3
   5   1   1 384.665 285.428   2
   6  -1   1 1072.30 507.426   2
  -6  -1  -1 188.418 181.497   3
   6   1   1 579.710 307.482   2
   7  -1   1 51979.5 3654.64   2
  -7  -1  -1 49224.4 2487.29   3
   7   1   1 47760.9 3435.97   2
   8  -1   1 7709.09 1487.70   2
   8   1   1 7930.75 1523.64   2
  -8  -1  -1 9474.58 1160.06   3
   9  -1   1 14551.8 2266.56   2
   9   1   1 11994.6 1995.16   2
  10  -1   1 4640.66 1365.96   2
  10   1   1 2977.32 1060.81   2
  11  -1   1 8619.76 1942.61   2
  11  -2  -1 4470.50 1388.79   2
 -10  -2   1 31042.7 2451.11   3
  10  -2  -1 28516.0 3403.26   2
   9  -2  -1 115938. 6423.62   2
  -9  -2   1 120750. 4598.24   3
  -8  -2   1 10718.6 1305.84   3
  -7  -2   1 3445.29 712.706   3
  -6  -2   1 32666.9 2045.30   3
  -5  -2   1 55382.0 2521.78   3
  -4  -2   1 1244.70 361.805   3
  -3  -2   1 135.544 138.487   3
   3   2  -1 78.2305 60.4550   1
  -3   2   1 61.6404 50.0303   3
   2   2  -1 78951.8 1782.62   1
   2  -2  -1 75925.7 1704.93   3
  -2  -2   1 77917.5 2487.31   3
   1   2  -1 244026. 3661.11   1
   1  -2  -1 242073. 3456.51   3
  -1  -2   1 244028. 4053.91   3
   0  -2  -1 47585.5 1670.07   3
   0  -2   1 40888.5 1532.57   3
  -1  -2  -1 25249.3 1317.98   3
   1   2   1 23929.5 648.976   1
  -2  -2  -1 69849.1 2367.35   3
  -3  -2  -1 153080. 3765.00   3
  -4  -2  -1 7152.22 869.631   3
  -5  -2  -1 1684.75 463.735   3
  -6  -2  -1 1795.83 494.263   3
  -7  -2  -1 127215. 4499.05   3
   8  -2   1 155989. 7119.57   2
  -8  -2  -1 158507. 5296.39   3
   9  -2   1 4910.60 1334.29   2
  -9  -2  -1 2828.12 759.389   3
  10  -2   1 314.510 272.345   2
  11  -2   1 7136.63 1921.02   2
  11  -3  -1 13692.2 2594.38   2
 -10  -3   1 2554.00 762.936   3
  -9  -3   1 132983. 5329.80   3
  -8  -3   1 227.536 209.227   3
  -7  -3   1 3227.03 769.645   3
  -6  -3   1 310125. 7007.65   3
  -5  -3   1 14630.8 1453.26   3
   4   3  -1 153411. 2190.87   1
  -4  -3   1 151906. 4459.32   3
   3   3  -1 14012.4 683.616   1
   3  -3  -1 14352.7 821.856   3
  -3  -3   1 15756.7 1351.61   3
  -2  -3   1 53763.0 2348.33   3
   2  -3  -1 51424.7 1784.07   3
   2   3  -1 52858.0 1672.29   1
   1  -3  -1 262931. 4383.66   3
   1   3  -1 272317. 4426.22   1
  -1  -3   1 271727. 4970.47   3
   0  -3   1 143141. 3395.02   3
   0  -3  -1 146958. 3516.87   3
  -1  -3  -1 951.095 298.633   3
   1  -3   1 1315.20 298.259   3
   1   3   1 943.449 149.362   1
   2  -3   1 10285.4 744.389   3
  -2  -3  -1 10304.6 1038.66   3
  -3  -3  -1 82431.8 3119.68   3
   3  -3   1 85490.6 1821.06   3
  -4  -3  -1 103473. 3725.45   3
   4  -3   1 90579.3 1371.14   3
  -5  -3  -1 52989.0 2838.54   3
  -6  -3  -1 32934.4 2383.25   3
  -7  -3  -1 10735.1 1430.31   3
  -8  -3  -1 829.059 430.680   3
  -9  -3  -1 11046.5 1618.29   3
 -10  -3  -1 5229.70 1149.92   3
  10  -3   1 8161.93 1906.97   2
 -11  -4   1 14282.7 2078.36   3
 -10  -4   1 12704.0 1868.22   3
  -9  -4   1 1503.94 647.393   3
  -8  -4   1 4703.54 1052.71   3
  -7  -4   1 4556.13 989.719   3
  -6  -4   1 69477.9 3652.96   3
  -5  -4   1 17626.5 1767.00   3
  -4  -4   1 200.038 199.501   3
   3   4  -1 11786.5 648.254   1
  -3  -4   1 13200.8 1392.11   3
   3  -4  -1 13680.6 1006.13   3
   2  -4  -1 15413.8 1169.29   3
   2   4  -1 14363.9 989.294   1
  -2  -4   1 15713.6 1444.27   3
  -1  -4   1 59.6645 86.9378   3
   1  -4  -1 91.4561 125.277   3
   0  -4   1 96370.3 3198.84   3
   0  -4  -1 94574.1 3255.35   3
   1  -4   1 7022.21 815.088   3
  -1  -4  -1 5985.65 856.499   3
   2  -4   1 49589.4 1959.62   3
  -2  -4  -1 48775.3 2569.07   3
   3  -4   1 40718.1 1578.39   3
  -3  -4  -1 41323.9 2484.07   3
  -4  -4  -1 199927. 5762.45   3
  -5  -4  -1 77813.8 3788.85   3
  -6  -4  -1 620.158 393.573   3
  -7  -4  -1 56090.7 3580.30   3
  -8  -4  -1-146.639 195.189   3
  -9  -4  -1 33836.6 3091.60   3
 -10  -4  -1 755.080 438.445   3
 -11  -4  -1 25012.3 2868.83   3
 -10  -5   1 1600.03 688.752   3
  -9  -5   1 9109.70 1643.62   3
  -8  -5   1 19595.6 2321.88   3
  -7  -5   1 13579.6 1839.63   3
  -6  -5   1 7153.75 1278.83   3
  -5  -5   1 2466.51 725.992   3
  -4  -5   1 113163. 4692.23   3
  -3  -5   1 2626.82 685.091   3
   3  -5  -1 2383.18 498.701   3
  -2  -5   1 22773.8 1920.03   3
   2  -5  -1 26351.6 1780.09   3
   1  -5  -1 9772.68 1143.01   3
  -1  -5   1 8729.29 1137.81   3
   1   5  -1 9438.46 1049.14   1
   0  -5   1 7929.37 1037.87   3
   0  -5  -1 8071.70 1077.32   3
  -1  -5  -1 214.399 209.032   3
   1  -5   1 86.0326 156.437   3
  -2  -5  -1 216890. 6088.65   3
   2  -5   1 233366. 4927.49   3
  -3  -5  -1 40856.0 2769.05   3
  -4  -5  -1 4042.40 942.043   3
  -5  -5  -1 21095.3 2179.38   3
  -6  -5  -1 8633.88 1481.61   3
  -7  -5  -1 9053.66 1582.37   3
  -8  -5  -1 2916.48 899.083   3
  -9  -5  -1 13372.3 2084.14   3
  -8  -6   1 8796.54 1697.42   3
  -7  -6   1 44869.9 3682.04   3
  -6  -6   1 15937.6 2111.15   3
  -5  -6   1 451.291 339.591   3
  -4  -6   1 123246. 5414.02   3
  -3  -6   1 81840.5 4225.49   3
  -2  -6   1 12124.5 1559.53   3
   2  -6  -1 12483.4 1392.46   3
   1  -6  -1 1411.29 505.138   3
  -1  -6   1 1498.91 539.675   3
   0  -6   1 6944.12 1080.61   3
   0  -6  -1 7457.13 1186.02   3
  -1  -6  -1 12961.8 1589.28   3
   1  -6   1 13202.6 1421.16   3
  -2  -6  -1 50404.5 3278.81   3
  -3  -6  -1 5162.66 1085.71   3
  -4  -6  -1 338.405 291.727   3
  -5  -6  -1 48511.2 3647.83   3
  -6  -6  -1 1608.55 736.620   3
  -7  -6  -1 3677.02 1103.50   3
  -6  -7   1 642.626 433.897   3
  -5  -7   1 97.9604 331.718   3
  -4  -7   1 9795.53 1680.00   3
  -3  -7   1 3403.66 918.633   3
  -2  -7   1 3098.51 863.311   3
  -1  -7   1 487.239 402.642   3
   0  -7  -1 3097.28 842.762   3
   0  -7   1 5323.14 1044.83   3
  -1  -7  -1 53426.2 3590.77   3
  -2  -7  -1 15760.9 2050.65   3
  -3  -7  -1 184.870 233.358   3
  -4  -7  -1 655.434 459.123   3
  -5  -7  -1 27787.6 3017.23   3
  -3  -8   1 144021. 6721.86   3
  -2  -8   1 15080.4 2120.83   3
  -1  -8   1 1607.21 694.936   3
  -1  -8  -1 32219.3 3079.76   3
  -2  -8  -1 30134.6 3083.29   3
  12   0  -2 5826.32 1595.07   2
  11   0  -2 78084.8 5612.09   2
  10   0  -2 120007. 6508.15   2
   9   0  -2-88.4098 197.549   2
  -8   0   2 18820.6 1357.44   3
   8   0  -2 20551.7 2323.98   2
  -7   0   2 75985.6 2593.32   3
   7   0  -2 73904.7 4038.72   2
   6   0  -2 626014. 10699.5   2
  -6   0   2 626311. 7200.17   3
   5   0  -2 18743.5 1654.30   2
   4   0  -2 16948.6 1395.78   2
   4   0  -2 20142.6 1183.24   1
   3   0  -2 24764.9 1418.52   2
   3   0  -2 23131.7 1153.36   1
   1   0   2 168877. 2728.91   2
  -1   0  -2 167683. 3457.83   1
   2   0   2 4400.47 576.704   2
  -3   0  -2 13454.7 928.624   3
   3   0   2 13165.1 1195.53   2
  -4   0  -2 20703.2 1242.42   3
   4   0   2 19246.0 1638.57   2
  -5   0  -2 20711.2 1338.95   3
   5   0   2 15300.5 1634.13   2
   6   0   2 8674.23 1357.76   2
  -6   0  -2 7821.36 873.779   3
  -7   0  -2 92573.5 3120.85   3
   7   0   2 79146.9 4471.76   2
   8   0   2 766.053 456.561   2
   9   0   2 4028.65 1166.45   2
  10   0   2 3122.84 1091.73   2
  11   0   2 96021.7 6580.21   2
  12   1  -2 654.251 538.472   2
  12  -1  -2-214.679 321.623   2
  11   1  -2 2914.21 1115.79   2
  11  -1  -2 3403.19 1184.37   2
  10   1  -2-136.894 223.926   2
  10  -1  -2 477.970 388.427   2
   9   1  -2 3572.89 1070.16   2
  -9  -1   2 4304.00 779.672   3
   9  -1  -2 4726.76 1194.76   2
   8   1  -2 2723.78 839.298   2
  -8  -1   2 4601.95 780.983   3
   8  -1  -2 3178.09 921.736   2
  -7  -1   2 1156.09 365.052   3
  -7   1   2 1024.22 239.999   3
   7  -1  -2 1106.60 546.986   2
   7   1  -2 734.869 382.661   2
  -6   1   2 6781.09 613.686   3
  -6  -1   2 6834.83 866.826   3
   6   1  -2 7810.63 1200.76   2
   5   1  -2 9182.59 1165.41   2
  -5  -1   2 7725.71 867.329   3
   5   1  -2 9396.49 853.177   1
   4   1  -2 7257.23 925.085   2
   4   1  -2 7795.82 688.497   1
   3  -1  -2 6005.25 629.772   1
   3   1  -2 7081.64 646.448   1
   0   1  -2 81831.0 2547.67   1
   0  -1  -2 84753.9 1997.70   1
   0  -1  -2 83387.7 2136.33   3
  -1  -1  -2 47.2738 71.6233   1
  -1  -1  -2 22.5758 84.0281   3
  -2  -1  -2 28273.9 1351.90   1
  -2  -1  -2 28725.4 1501.92   3
  -3  -1  -2 170877. 3914.59   3
  -4  -1  -2 3663.78 615.213   3
   4   1   2 4363.94 805.773   2
   5   1   2 40357.0 2705.61   2
  -5  -1  -2 39417.8 2131.84   3
   5  -1   2 36007.7 2592.05   2
   6   1   2 169712. 6084.03   2
   6  -1   2 161829. 5989.72   2
  -6  -1  -2 162350. 4557.69   3
  -7  -1  -2 374933. 7390.01   3
   7  -1   2 394531. 10197.0   2
   7   1   2 382507. 9873.46   2
  -8  -1  -2 4440.95 847.262   3
   8   1   2 4552.16 1183.17   2
   8  -1   2 4582.14 1190.90   2
   9  -1   2 4180.88 1206.21   2
   9   1   2 5775.53 1419.13   2
  10  -1   2 2528.27 1013.13   2
  11  -1   2 28305.7 3632.67   2
  12  -2  -2 633.628 553.340   2
  11  -2  -2 185.927 295.679   2
 -10  -2   2 126405. 4909.89   3
  10  -2  -2 128247. 7098.38   2
  -9  -2   2 7497.32 1142.57   3
   9  -2  -2 8186.90 1711.55   2
  -8  -2   2 20941.6 1838.18   3
  -7  -2   2 150662. 4719.91   3
  -6  -2   2 28769.6 1973.73   3
  -6   2   2 31490.2 938.019   3
   5   2  -2 10437.9 833.593   1
  -5  -2   2 10299.6 1124.37   3
  -4  -2   2 36397.2 2013.17   3
   4   2  -2 39263.4 1522.93   1
   3   2  -2 152466. 3133.46   1
   2   2  -2 139578. 3232.43   1
   1   2  -2 19841.0 1309.64   1
   1  -2  -2 18670.7 1123.82   3
   1  -2  -2 19657.8 981.303   1
   0  -2  -2 397.895 197.145   3
   0  -2  -2 353.775 120.688   1
  -1  -2  -2 56.9133 41.5556   1
  -1  -2  -2-8.97565 54.9387   3
  -2  -2  -2 492287. 7002.83   3
  -3  -2  -2 313245. 4030.02   1
  -3  -2  -2 311169. 5888.94   3
  -4  -2  -2 170.475 177.950   3
  -5  -2  -2 401.078 232.662   3
  -6  -2  -2 46341.0 2700.19   3
  -7  -2  -2 11668.2 1435.31   3
  -8  -2  -2 39048.6 2752.34   3
   8  -2   2 41111.7 3697.53   2
   9  -2   2 2338.68 945.456   2
  -9  -2  -2 2124.73 667.898   3
  10  -2   2 1059.76 663.145   2
  11  -2   2 5353.03 1612.97   2
  11  -3  -2 14839.3 2715.64   2
 -11  -3   2 14827.2 1942.12   3
 -10  -3   2 99185.0 4781.60   3
  -9  -3   2 41821.8 2966.42   3
  -8  -3   2 6147.25 1111.33   3
  -7  -3   2 178956. 5701.95   3
  -6  -3   2 170025. 5293.87   3
  -5  -3   2 28725.5 2091.56   3
   5   3  -2 27432.6 1254.63   1
  -4  -3   2 3084.34 666.625   3
   4   3  -2 2249.22 362.639   1
  -3  -3   2 36077.5 2148.63   3
   3   3  -2 42710.9 1735.22   1
   2   3  -2 11831.1 1028.89   1
   2  -3  -2 10336.6 906.033   3
  -2  -3   2 11319.9 1144.45   3
  -1  -3   2 263557. 5272.18   3
   1   3  -2 253910. 5129.07   1
   1  -3  -2 264896. 4914.07   3
   0  -3  -2 2557.16 514.579   3
  -1  -3  -2 7700.25 930.497   3
  -2  -3  -2 785.154 319.643   3
  -3  -3  -2 32963.7 2123.34   3
  -4  -3  -2 3079.71 684.689   3
  -5  -3  -2 123.375 221.492   3
  -6  -3  -2 22924.5 2062.26   3
  -7  -3  -2 1506.51 561.339   3
  -8  -3  -2 2223.45 754.442   3
  -9  -3  -2-14.1876 78.0067   3
   9  -3   2 566.081 474.749   2
  10  -3   2 1138.23 709.863   2
 -10  -3  -2 268.735 441.438   3
 -11  -4   2 30823.0 2988.99   3
 -10  -4   2 5939.75 1250.24   3
  -9  -4   2 1593.54 640.048   3
  -8  -4   2 1523.00 611.754   3
  -7  -4   2 36159.6 2787.52   3
  -6  -4   2 5943.01 1106.35   3
  -5  -4   2 57357.5 3231.77   3
   4   4  -2 89.0814 100.195   1
  -4  -4   2 146.045 334.643   3
   3  -4  -2 639.108 249.441   3
  -3  -4   2 808.019 377.671   3
   3   4  -2 663.004 226.133   1
   2  -4  -2 41.7573 135.461   3
   2   4  -2 125.026 131.436   1
  -2  -4   2 245.800 169.727   3
  -1  -4   2 77209.2 3164.70   3
   1   4  -2 70194.2 2973.14   1
   1  -4  -2 74384.6 2957.07   3
   0  -4  -2 39929.0 2267.12   3
   0  -4   2 38335.8 2137.26   3
  -1  -4  -2 112321. 3941.83   3
   1  -4   2 113086. 3441.87   3
  -2  -4  -2 70996.1 3275.33   3
   2  -4   2 68083.9 2478.67   3
  -3  -4  -2 115800. 4401.64   3
   3  -4   2 111489. 2906.39   3
  -4  -4  -2 167726. 5547.69   3
  -5  -4  -2 16292.3 1820.01   3
  -6  -4  -2 35561.2 2818.77   3
  -7  -4  -2 591.759 455.241   3
  -8  -4  -2 2163.83 759.944   3
  -9  -4  -2 558.016 405.176   3
 -10  -4  -2 18898.1 2487.73   3
 -10  -5   2 5288.83 1282.79   3
  -9  -5   2 34291.5 3198.01   3
  -8  -5   2 9255.66 1597.37   3
  -7  -5   2 44793.3 3367.89   3
  -6  -5   2 1511.00 599.603   3
  -5  -5   2 11248.0 1582.57   3
  -4  -5   2 9416.73 1382.44   3
   3  -5  -2 10929.2 1130.39   3
  -3  -5   2 9603.37 1354.78   3
  -2  -5   2 4616.48 914.803   3
   2  -5  -2 6876.76 971.019   3
   1   5  -2 4838.31 829.809   1
  -1  -5   2 4691.10 859.849   3
   1  -5  -2 5370.28 887.985   3
   0  -5   2 781.620 342.203   3
   0  -5  -2 480.197 312.101   3
   1  -5   2 116542. 3890.97   3
  -1  -5  -2 119385. 4549.69   3
  -2  -5  -2 172741. 5672.57   3
   2  -5   2 177002. 4453.55   3
  -3  -5  -2 80906.7 4059.25   3
  -4  -5  -2 65191.0 3805.69   3
  -5  -5  -2 1839.40 677.615   3
  -6  -5  -2 12929.2 1867.39   3
  -7  -5  -2 3056.09 947.955   3
  -8  -5  -2 34239.3 3320.93   3
  -9  -5  -2 1445.44 767.414   3
  -8  -6   2 11001.9 1865.45   3
  -7  -6   2 20740.0 2498.71   3
  -6  -6   2 252.654 249.311   3
  -5  -6   2 129583. 5798.37   3
  -4  -6   2 25872.5 2498.03   3
  -3  -6   2 50701.1 3368.14   3
   2  -6  -2 509.597 338.106   3
  -2  -6   2 302.112 259.312   3
   1  -6  -2 474.462 271.833   3
  -1  -6   2 420.081 308.299   3
   0  -6  -2 12716.4 1590.06   3
   0  -6   2 12495.9 1473.45   3
  -1  -6  -2 9679.79 1440.56   3
   1  -6   2 11404.2 1325.40   3
  -2  -6  -2 2506.38 750.426   3
  -3  -6  -2 6623.10 1276.18   3
  -4  -6  -2 181.973 292.233   3
  -5  -6  -2 5232.62 1218.25   3
  -6  -6  -2 371.436 338.606   3
  -7  -6  -2-670.228 470.857   3
  -5  -7   2 48217.2 3852.04   3
  -4  -7   2 4015.99 1100.39   3
  -3  -7   2 7932.74 1465.23   3
  -2  -7   2 453.289 330.960   3
  -1  -7   2 14311.8 1805.71   3
   1  -7  -2 12202.2 1650.30   3
   0  -7  -2 5440.29 1152.61   3
   0  -7   2 7288.36 1240.49   3
  -1  -7  -2 25847.7 2587.32   3
  -2  -7  -2 11822.3 1793.37   3
  -3  -7  -2 5416.00 1245.18   3
  -4  -7  -2 28967.0 3022.88   3
  -5  -7  -2 2000.85 812.384   3
  -3  -8   2 22444.5 2664.21   3
  -2  -8   2-3.49056 67.7097   3
  -1  -8  -2 21100.7 2559.15   3
  -2  -8  -2-132.141 267.750   3
  12   0  -3 411.037 261.180   2
  11   0  -3 464.853 418.869   2
  10   0  -3 67.6259 162.844   2
   9   0  -3 787.748 621.483   2
   8   0  -3 225.746 238.439   2
  -8   0   3 124.754 174.012   3
   7   0  -3 180.130 210.267   2
  -7   0   3-17.3716 82.0810   3
   6   0  -3-117.566 144.577   2
   5   0  -3 11.0548 48.0193   1
   5   0  -3-1.08658 102.008   2
   4   0  -3-45.9123 63.8396   1
   4   0  -3-35.1801 111.802   2
   3   0  -3 100.862 111.635   2
   3   0  -3 122.741 141.840   1
   2   0  -3 52.4146 135.179   1
   2   0  -3 91.2534 100.969   2
   1   0  -3-0.34264 80.5159   1
   0   0  -3 14.5169 113.759   1
   1   0   3 151.668 106.861   2
  -1   0  -3 56.3850 134.512   1
   2   0   3 21.2887 76.9973   2
   3   0   3 109.947 153.639   2
   4   0   3 87.4341 178.874   2
   5   0   3 60.1596 206.969   2
   6   0   3 78.8025 138.906   2
   7   0   3 58.2761 123.625   2
   8   0   3 54.8737 133.652   2
   9   0   3-220.694 279.788   2
  10   0   3-343.340 372.751   2
  11   0   3 1261.84 756.984   2
  12   1  -3 11501.8 2286.55   2
  12  -1  -3 11569.5 2281.85   2
  11   1  -3 17610.4 2644.29   2
  11  -1  -3 25043.5 3204.24   2
  10  -1  -3 288.959 319.544   2
  10   1  -3 952.663 558.576   2
   9   1  -3 180.815 220.993   2
  -9  -1   3 111.202 128.752   3
   9  -1  -3 319.606 311.046   2
   8   1  -3 4513.88 1059.00   2
  -8  -1   3 3646.68 711.662   3
   8  -1  -3 5537.52 1213.04   2
   7  -1  -3 24813.1 2357.62   2
   7   1  -3 28385.8 2453.22   2
  -7  -1   3 32127.6 2043.39   3
   6   1  -3 20933.4 1461.97   1
   6   1  -3 20871.4 1903.76   2
   5   1  -3 22050.7 1757.98   2
   5   1  -3 22600.4 1396.36   1
   4  -1  -3 59415.3 2278.17   1
   4   1  -3 61379.8 2600.54   2
   4   1  -3 61358.0 2241.91   1
   3   1  -3 107286. 3066.59   1
   3  -1  -3 100861. 2751.50   1
   2   1  -3 782340. 8629.87   1
   1   1  -3 14457.1 1229.82   1
   1  -1  -3 12727.2 966.672   1
   0  -1  -3 8240.98 796.372   1
   0   1  -3 9133.69 1000.03   1
  -1  -1  -3 155888. 3564.29   3
  -1  -1  -3 153118. 3603.12   1
  -2  -1  -3 394715. 6139.67   1
  -2  -1  -3 391980. 6105.98   3
  -3  -1  -3 1169.07 366.488   3
  -3  -1  -3 950.218 326.492   1
  -4  -1  -3 1259.51 394.410   3
   4  -1   3 1518.45 526.158   2
   5  -1   3 26832.2 2269.33   2
  -5  -1  -3 26053.0 1848.92   3
   6  -1   3 188028. 6583.75   2
  -6  -1  -3 189896. 5227.37   3
   7  -1   3 6528.24 1314.76   2
  -7  -1  -3 4058.09 808.627   3
  -8  -1  -3-141.414 154.461   3
   8  -1   3 18.9465 248.662   2
   9  -1   3 4971.91 1337.24   2
  10  -1   3 31720.5 3652.85   2
  11  -1   3 1435.26 808.292   2
  12  -2  -3 4596.88 1553.62   2
  11  -2  -3 16040.0 2636.01   2
 -10  -2   3 4321.72 924.530   3
  10  -2  -3 2150.65 949.100   2
  -9  -2   3 329.670 243.671   3
  -8  -2   3 77486.8 3622.96   3
  -7  -2   3 150919. 4896.50   3
   6   2  -3 4494.22 644.623   1
  -6  -2   3 4467.10 807.157   3
   5   2  -3 3018.56 511.213   1
   4   2  -3 6829.86 769.282   1
   3   2  -3 499604. 6956.71   1
   3  -2  -3 505991. 6561.34   1
   2   2  -3 333476. 5924.93   1
   2  -2  -3 325891. 4731.50   1
   1  -2  -3 20776.8 1119.21   1
   1   2  -3 19019.7 1505.50   1
   0  -2  -3 20773.7 1401.28   3
   0   2  -3 22094.5 1677.65   1
   0  -2  -3 17097.4 1004.27   1
  -1  -2  -3 110120. 3450.94   3
  -1  -2  -3 110906. 2602.82   1
  -2  -2  -3 42634.5 1726.36   1
  -2  -2  -3 42644.0 2277.80   3
  -3  -2  -3 85769.0 2664.70   1
  -3  -2  -3 91103.6 3523.09   3
  -4  -2  -3 17716.7 1297.95   1
  -4  -2  -3 15070.5 1493.32   3
  -5  -2  -3 2530.14 639.477   3
  -5  -2  -3 2856.29 586.078   1
  -6  -2  -3 117301. 4580.78   3
  -7  -2  -3 12063.9 1541.32   3
   7  -2   3 10408.0 1741.16   2
  -8  -2  -3 1358.69 523.107   3
   8  -2   3 1622.85 705.704   2
   9  -2   3 6551.19 1576.54   2
  -9  -2  -3 7060.92 1287.62   3
  10  -2   3 12321.0 2308.39   2
 -11  -3   3 68930.5 4121.17   3
  11  -3  -3 67535.1 5682.93   2
 -10  -3   3 61030.4 3758.13   3
  -9  -3   3 7060.66 1232.79   3
  -8  -3   3 110321. 4731.73   3
  -7  -3   3 35482.9 2595.07   3
  -6  -3   3 73409.5 3607.05   3
   6   3  -3 72824.6 2447.68   1
  -5  -3   3 4997.64 900.806   3
   5   3  -3 4245.03 588.948   1
   4   3  -3 109.833 121.991   1
  -4  -3   3 67.5213 124.444   3
   3   3  -3 62501.5 2602.29   1
   2  -3  -3 16422.2 1222.84   3
   2   3  -3 15353.5 1375.86   1
   1  -3  -3 46458.5 2221.63   3
   1   3  -3 45878.2 2508.37   1
   1  -3  -3 45133.6 1806.69   1
   0  -3  -3 15849.0 960.922   1
   0  -3  -3 17983.6 1498.85   3
   0   3  -3 17361.8 1641.96   1
  -1  -3  -3 13596.7 1343.59   3
  -1  -3  -3 16049.2 834.041   1
  -2  -3  -3 5071.32 853.822   3
  -2  -3  -3 4502.18 416.734   1
  -3  -3  -3 6549.33 1037.17   3
  -3  -3  -3 5819.16 488.637   1
  -4  -3  -3 4105.11 859.144   3
  -5  -3  -3 20913.9 1993.46   3
  -6  -3  -3 16260.1 1843.77   3
  -7  -3  -3 5622.45 1130.41   3
  -8  -3  -3 4524.58 1082.78   3
   8  -3   3 3555.06 1157.15   2
  -9  -3  -3 20543.1 2394.81   3
   9  -3   3 15097.9 2475.76   2
  10  -3   3 5411.15 1574.81   2
 -11  -4   3 24625.9 2673.65   3
 -10  -4   3 5513.31 1223.80   3
  -9  -4   3-243.780 251.327   3
  -8  -4   3 3518.56 903.868   3
  -7  -4   3 5785.02 1135.25   3
  -6  -4   3 53454.6 3326.21   3
  -5  -4   3 14130.3 1655.45   3
  -4  -4   3 10798.9 1418.96   3
   4   4  -3 12472.1 1087.53   1
  -3  -4   3-6.00211 105.748   3
   3   4  -3 27.3127 120.795   1
  -2  -4   3 118961. 4315.87   3
   2   4  -3 116432. 4013.46   1
   2  -4  -3 118850. 3745.68   3
   1  -4  -3 2629.93 599.596   3
  -1  -4   3 3425.16 718.784   3
   1   4  -3 2889.57 685.153   1
   0  -4  -3 42866.2 2524.01   3
   0   4  -3 40209.2 2600.41   1
  -1  -4  -3 294551. 6909.96   3
  -2  -4  -3 42618.2 2723.98   3
  -3  -4  -3 146413. 5243.46   3
  -4  -4  -3 1668.76 571.938   3
  -5  -4  -3 23220.8 2286.38   3
  -6  -4  -3 20118.1 2227.58   3
  -7  -4  -3 12829.2 1889.03   3
  -8  -4  -3 605.209 413.467   3
  -9  -4  -3 15111.5 2200.05   3
 -10  -4  -3 7698.99 1618.36   3
  -9  -5   3 20408.5 2454.06   3
  -8  -5   3 29113.2 2848.41   3
  -7  -5   3 6546.41 1314.50   3
  -6  -5   3 3564.79 950.937   3
  -5  -5   3 955.795 472.540   3
  -4  -5   3 40623.3 2959.59   3
   3  -5  -3 1455.00 433.078   3
  -3  -5   3 1421.36 516.112   3
   2  -5  -3 4601.85 830.384   3
   2   5  -3 4940.13 896.497   1
  -2  -5   3 4632.35 927.718   3
   1   5  -3 15898.3 1690.11   1
  -1  -5   3 13189.0 1508.44   3
   1  -5  -3 12750.8 1461.48   3
   0   5  -3 87075.7 4128.51   1
   0  -5  -3 88218.7 3989.54   3
   0  -5   3 89571.2 3775.00   3
   1  -5   3 56932.0 2861.31   3
  -1  -5  -3 59144.4 3388.72   3
  -2  -5  -3 15006.9 1771.68   3
   2  -5   3 12047.9 1252.18   3
  -3  -5  -3 157543. 5940.09   3
  -4  -5  -3 5855.92 1195.78   3
  -5  -5  -3 12466.2 1823.37   3
  -6  -5  -3 1196.83 547.184   3
  -7  -5  -3 21818.1 2608.04   3
  -8  -5  -3 7692.53 1621.25   3
  -8  -6   3 12812.5 2040.30   3
  -7  -6   3 134.447 155.573   3
  -6  -6   3 54172.3 3952.36   3
  -5  -6   3 60713.5 4056.79   3
  -4  -6   3 1286.53 591.523   3
  -3  -6   3 5599.47 1164.20   3
   2  -6  -3 1582.71 533.629   3
  -2  -6   3 1887.56 652.470   3
   1  -6  -3 416.388 344.219   3
  -1  -6   3-74.4505 128.507   3
   0  -6  -3 8166.51 1345.12   3
   0   6  -3 11766.0 1643.28   1
   0  -6   3 8693.32 1281.29   3
   1  -6   3 422.256 268.859   3
  -1  -6  -3 2301.09 724.420   3
  -2  -6  -3 2349.14 765.968   3
  -3  -6  -3 890.160 502.926   3
  -4  -6  -3-27.1661 132.749   3
  -5  -6  -3 6664.92 1466.47   3
  -6  -6  -3 2235.63 856.730   3
  -5  -7   3 143985. 6700.88   3
  -4  -7   3 29990.5 2948.39   3
  -3  -7   3-358.765 311.601   3
  -2  -7   3 385.882 321.269   3
   1  -7  -3 38277.6 3044.24   3
  -1  -7   3 37573.5 2976.19   3
   0  -7  -3 71198.9 4326.95   3
  -1  -7  -3 2242.56 791.817   3
  -2  -7  -3 113.736 403.133   3
  -3  -7  -3 26439.6 2877.15   3
  -4  -7  -3 69775.1 4856.84   3
  -2  -8   3 1479.33 675.460   3
  -1  -8  -3-32.8156 127.295   3
  12   0  -4 57694.9 4962.07   2
  11   0  -4-687.367 498.813   2
  10   0  -4 855.157 566.669   2
   9   0  -4 4928.73 1176.25   2
   8   0  -4 83616.0 4506.24   2
   7   0  -4 62652.3 3012.84   1
   7   0  -4 69118.2 3739.35   2
   6   0  -4 15616.2 1377.01   1
   6   0  -4 14852.1 1569.61   2
   5   0  -4-6.69818 40.2023   2
   5   0  -4 31.4113 100.991   1
   4   0  -4 16285.9 1251.44   2
   4   0  -4 15414.8 1257.03   1
   3   0  -4 12924.4 1182.85   1
   3   0  -4 13394.8 934.649   2
   2   0  -4 36965.3 2033.10   1
   2   0  -4 41708.5 1138.69   2
   1   0  -4 40013.5 2168.77   1
   0   0  -4 7072.76 947.536   1
  -1   0  -4 89644.8 3498.99   1
  -2   0  -4 29327.1 2083.20   1
   2   0   4 27026.5 1588.22   2
  -3   0  -4 34271.0 2360.54   1
   3   0   4 36041.0 2106.33   2
   4   0   4 11895.8 1361.12   2
   5   0   4 869670. 12922.8   2
   6   0   4 97456.8 4769.01   2
   7   0   4 18942.6 2269.20   2
   8   0   4 9424.54 1716.93   2
   9   0   4 57788.9 4623.67   2
  10   0   4 66193.9 5298.25   2
  12  -1  -4 18900.2 2918.12   2
  11  -1  -4 15802.2 2491.70   2
  11   1  -4 18683.9 2670.94   2
  10  -1  -4 13295.1 2140.78   2
  10   1  -4 13494.0 2107.52   2
   9   1  -4 5264.87 1216.43   2
  -9  -1   4 6683.37 1050.59   3
   9  -1  -4 6304.52 1354.73   2
  -8  -1   4 197056. 5553.35   3
   8  -1  -4 201732. 7162.74   2
   8   1  -4 190223. 6809.98   2
   7   1  -4 21659.7 1682.83   1
   7  -1  -4 21830.3 2170.64   2
   7   1  -4 21235.7 2083.84   2
   6  -1  -4 2518.44 586.281   1
   6   1  -4 1083.70 446.227   2
   6   1  -4 2291.97 508.848   1
   5  -1  -4 10005.7 1070.83   1
   5   1  -4 9478.11 1007.41   1
   5   1  -4 8805.25 1079.53   2
   4   1  -4 567070. 7930.65   1
   4  -1  -4 578607. 7654.52   1
   3   1  -4 999999. 10880.4   1
   2   1  -4 14926.3 1361.62   1
   2  -1  -4 16176.2 1264.12   1
  -2  -1   4 17051.5 805.466   2
   1  -1  -4 18322.7 1364.49   1
   1   1  -4 20240.3 1628.44   1
   0  -1  -4 250635. 5194.11   1
   0   1  -4 236655. 5898.02   1
  -1  -1  -4 71944.3 2857.56   1
  -1   1  -4 68093.5 3242.44   1
  -2   1  -4 3805.71 802.411   1
  -2  -1  -4 3711.27 682.819   1
   2  -1   4 4042.42 610.468   2
  -3  -1  -4 5182.96 861.214   1
   3  -1   4 6018.77 883.832   2
  -4  -1  -4 27049.6 2042.01   1
  -4  -1  -4 24529.3 1799.55   3
   4  -1   4 25478.5 2025.73   2
  -5  -1  -4 158754. 4777.32   3
   5  -1   4 160588. 5656.48   2
  -6  -1  -4 11550.3 1332.40   3
   6  -1   4 8820.38 1455.72   2
  -7  -1  -4 12484.6 1446.14   3
   7  -1   4 7624.14 1469.63   2
   8  -1   4 3501.33 1084.98   2
   9  -1   4 5470.98 1430.65   2
  10  -1   4 1639.60 896.286   2
  12  -2  -4 370.124 629.026   2
  11  -2  -4 4054.57 1293.56   2
 -10  -2   4 8230.33 1326.84   3
  10  -2  -4 9752.05 1922.58   2
  -9  -2   4 84299.7 4058.29   3
  -8  -2   4 116617. 4653.45   3
   7   2  -4 4213.26 717.777   1
  -7  -2   4 4141.40 845.592   3
   6   2  -4 7352.89 896.580   1
   5   2  -4 18890.7 1434.39   1
   4  -2  -4 12678.9 1176.85   1
   4   2  -4 12333.1 1214.07   1
   3   2  -4 415983. 7344.24   1
   3  -2  -4 427299. 6302.11   1
   2   2  -4 15008.1 1439.72   1
   2  -2  -4 14849.0 1134.34   1
   1   2  -4 12635.8 1393.72   1
   1  -2  -4 11447.1 982.786   1
   0   2  -4 13223.5 1463.15   1
   0  -2  -4 11383.4 1002.48   1
  -1   2  -4 315916. 7412.49   1
  -1  -2  -4 322043. 5473.98   1
  -1  -2  -4 322428. 6262.43   3
  -2  -2  -4 23601.5 1529.95   1
  -2  -2  -4 23916.6 1794.62   3
  -3  -2  -4 6123.80 956.566   3
  -3  -2  -4 6328.69 838.388   1
  -4  -2  -4 7574.25 985.358   1
  -4  -2  -4 5364.72 930.697   3
  -5  -2  -4 12459.6 1335.27   1
  -5  -2  -4 14818.6 1627.50   3
   6  -2   4 45475.2 3417.89   2
  -6  -2  -4 45246.5 2951.17   3
  -7  -2  -4 162.714 183.237   3
   7  -2   4 44.6620 126.988   2
   8  -2   4 1946.64 883.274   2
  -8  -2  -4 2613.88 760.593   3
   9  -2   4 8587.05 1848.65   2
  10  -2   4 16966.2 2785.10   2
 -11  -3   4 37117.9 3091.41   3
  11  -3  -4 42416.6 4481.70   2
 -10  -3   4-250.844 247.663   3
  -9  -3   4 18378.3 2031.93   3
  -8  -3   4 38152.8 2869.99   3
   7   3  -4 2824.42 581.241   1
  -7  -3   4 2432.57 699.406   3
   6   3  -4 722.168 273.847   1
  -6  -3   4 722.406 336.538   3
   5   3  -4 1667.39 448.948   1
   4   3  -4 1347.49 435.687   1
   3  -3  -4 1734.14 422.225   1
   3   3  -4 1983.24 547.269   1
   2  -3  -4 1104.70 325.702   1
   2   3  -4 1110.04 417.510   1
   1  -3  -4 159.024 153.666   1
   1   3  -4 513.803 311.186   1
   1  -3  -4 1.89936 134.307   3
   0  -3  -4 98923.0 3667.41   3
   0   3  -4 106375. 4406.51   1
   0  -3  -4 101838. 2708.45   1
  -1  -3  -4 61217.6 3035.76   3
  -1   3  -4 62826.0 3487.62   1
  -1  -3  -4 63419.0 2052.66   1
  -2  -3  -4 10355.0 1310.81   3
  -2  -3  -4 11778.5 898.444   1
  -3  -3  -4 476.379 311.459   3
  -4  -3  -4 43945.4 2950.43   3
  -5  -3  -4 13396.4 1687.54   3
  -6  -3  -4 24847.8 2415.39   3
  -7  -3  -4 660.857 456.601   3
  -8  -3  -4 6022.94 1272.84   3
   8  -3   4 6622.21 1569.83   2
   9  -3   4 26432.8 3326.71   2
  -9  -3  -4 31093.3 2991.35   3
  10  -3   4 77783.7 6015.74   2
 -11  -4   4 60241.1 4207.31   3
 -10  -4   4 2011.33 721.857   3
  -9  -4   4 10893.6 1709.02   3
  -8  -4   4 8124.58 1401.99   3
  -7  -4   4 41561.5 3130.57   3
  -6  -4   4 5451.25 1084.82   3
   5   4  -4 877.695 329.860   1
  -5  -4   4 1371.40 541.233   3
   4   4  -4 6469.93 933.503   1
  -4  -4   4 7466.19 1220.53   3
   3   4  -4 39200.0 2435.58   1
   2   4  -4 81920.0 3794.46   1
   1  -4  -4 57159.2 2915.76   3
   1   4  -4 60283.6 3401.79   1
   0  -4  -4 250392. 6450.68   3
   0   4  -4 259480. 7270.49   1
  -1  -4  -4 20662.1 1937.06   3
  -1   4  -4 20122.7 2103.24   1
  -2  -4  -4 38518.3 2742.25   3
  -3  -4  -4 5625.47 1079.12   3
  -4  -4  -4 22816.0 2306.12   3
  -5  -4  -4 66.3357 131.026   3
  -6  -4  -4 382.617 318.879   3
  -7  -4  -4 10.4948 81.9364   3
  -8  -4  -4 4355.78 1144.98   3
  -9  -4  -4 8788.20 1741.34   3
   9  -4   4 8181.55 2003.58   2
  -9  -5   4 44336.3 3671.31   3
  -8  -5   4 4065.73 1095.04   3
  -7  -5   4 20048.9 2319.66   3
  -6  -5   4 1503.63 638.718   3
  -5  -5   4 28749.5 2635.07   3
  -4  -5   4 29730.3 2604.02   3
  -3  -5   4 21363.4 2151.51   3
   3   5  -4 23090.4 1961.14   1
   2  -5  -4 15313.9 1580.02   3
  -2  -5   4 16883.4 1841.17   3
   2   5  -4 13460.6 1618.62   1
   1   5  -4 1603.50 574.496   1
  -1  -5   4 745.331 390.202   3
   0  -5  -4 79351.1 3969.41   3
   0  -5   4 81513.0 3821.47   3
   0   5  -4 77172.2 4235.23   1
  -1  -5  -4 25042.9 2329.15   3
  -1   5  -4 23822.1 2433.56   1
   1  -5   4 22087.3 1907.98   3
  -2  -5  -4 195500. 6744.64   3
   2  -5   4 193578. 5452.63   3
  -3  -5  -4 2247.98 755.010   3
  -4  -5  -4 1101.89 572.831   3
  -5  -5  -4 1410.59 635.195   3
  -6  -5  -4 5263.98 1272.31   3
  -7  -5  -4 3239.28 1035.20   3
  -7  -6   4 8951.80 1689.14   3
  -6  -6   4 28832.0 2931.74   3
  -5  -6   4 702.917 498.699   3
  -4  -6   4 1325.79 606.733   3
  -3  -6   4 1767.12 648.276   3
   2  -6  -4 2638.74 698.343   3
  -2  -6   4 2072.35 731.985   3
   1  -6  -4 10562.8 1506.47   3
  -1  -6   4 12776.6 1661.23   3
   0  -6  -4 15110.8 1885.55   3
   0  -6   4 16226.3 1805.35   3
   0   6  -4 15210.8 1985.25   1
  -1   6  -4 196.413 239.231   1
  -1  -6  -4 87.5165 286.949   3
  -2  -6  -4 56648.2 3902.39   3
  -3  -6  -4 874.863 494.960   3
  -4  -6  -4 15190.6 2170.32   3
  -5  -6  -4 766.634 300.813   3
  -5  -7   4 52827.6 4112.03   3
  -4  -7   4 4174.38 1151.57   3
  -3  -7   4 207.047 341.080   3
  -2  -7   4 9573.04 1602.15   3
   1  -7  -4 19789.8 2235.32   3
  -1  -7   4 19715.0 2230.01   3
   0  -7  -4 15749.7 2078.85   3
  -1  -7  -4 3491.94 1072.89   3
  -2  -7  -4 5263.90 1320.71   3
  -3  -7  -4 153.162 236.214   3
  -2  -8   4 7579.40 1502.98   3
  12   0  -5 1290.33 715.356   2
  11   0  -5-275.053 317.474   2
  10   0  -5-263.774 289.064   2
   9   0  -5-82.6263 160.810   2
   8   0  -5 138.717 126.875   2
   8   0  -5 73.4854 169.005   1
   7   0  -5 647.078 348.880   2
   7   0  -5-56.5708 131.729   1
   6   0  -5 39.8318 141.286   2
   6   0  -5 437.409 301.212   1
   5   0  -5 2155.17 564.152   1
   5   0  -5 3828.98 715.895   2
   4   0  -5-124.285 103.682   2
   4   0  -5 119.795 125.663   1
   3   0  -5 70.3303 93.9616   2
   3   0  -5-21.7481 106.765   1
   2   0  -5-43.6720 128.240   1
   1   0  -5 217.552 170.495   1
   0   0  -5 1089.72 454.530   1
  -1   0  -5 50.2515 164.714   1
  -2   0  -5-64.6534 111.563   1
  -3   0  -5 31.0795 206.372   1
  -4   0  -5-12.5811 107.340   1
   4   0   5 204.791 127.763   2
   5   0   5-327.767 257.131   2
   6   0   5 39.7697 107.180   2
   7   0   5-551.354 392.241   2
   8   0   5 227.638 272.471   2
   9   0   5 44.2088 158.411   2
  12  -1  -5 1405.31 762.452   2
  11  -1  -5 1759.21 799.355   2
  10  -1  -5 8240.47 1687.78   2
  10   1  -5 6511.03 1473.77   2
  -9  -1   5 19723.5 1921.23   3
   9  -1  -5 22640.6 2531.76   2
   9   1  -5 19827.2 2340.27   2
   8   1  -5 21173.5 1849.60   1
   8  -1  -5 17101.1 2050.23   2
   8   1  -5 20375.2 2174.65   2
   7   1  -5 76.9352 107.500   1
   7   1  -5 186.330 240.802   2
   7  -1  -5 124.929 159.286   1
   7  -1  -5 441.569 375.117   2
   6   1  -5 571.914 285.235   1
   6  -1  -5 497.935 275.632   1
   5   1  -5 37833.3 2277.30   1
   5  -1  -5 38987.4 2216.00   1
   4   1  -5 47413.1 2606.73   1
   4  -1  -5 48918.4 2441.25   1
   3   1  -5 7911.30 1092.32   1
   3  -1  -5 8438.26 1022.98   1
   2  -1  -5 3375.91 657.269   1
   2   1  -5 3297.16 710.193   1
   1   1  -5 13676.9 1508.52   1
   1  -1  -5 11169.0 1218.88   1
   0   1  -5 213485. 6203.70   1
   0  -1  -5 209725. 5393.61   1
   1  -1   5 1527.22 313.701   2
  -1   1  -5 1947.51 597.212   1
  -1  -1  -5 983.789 399.959   1
   2  -1   5 1504.73 393.068   2
  -2   1  -5 1151.92 490.999   1
  -2  -1  -5 2484.32 625.129   1
  -3   1  -5 6164.92 1147.53   1
  -3  -1  -5 7106.30 1110.89   1
   3  -1   5 6504.77 928.417   2
  -4  -1  -5 204548. 6184.71   1
   4  -1   5 207994. 5921.97   2
  -5  -1  -5 39825.3 2870.90   1
   5  -1   5 40899.7 2908.45   2
  -6  -1  -5 13383.4 1746.79   1
   6  -1   5 12971.5 1787.03   2
  -7  -1  -5 15702.5 1973.33   1
   7  -1   5 14279.2 2039.11   2
   8  -1   5 10072.0 1816.15   2
   9  -1   5 36520.8 3722.73   2
  10  -1   5-258.571 340.441   2
  12  -2  -5 3361.51 1234.65   2
  11  -2  -5 1735.34 752.544   2
 -10  -2   5 13434.4 1740.26   3
  10  -2  -5 10861.1 1975.85   2
  -9  -2   5 197869. 6508.95   3
   9  -2  -5 190913. 7807.19   2
   8   2  -5 19776.3 1722.03   1
  -8  -2   5 18057.5 1897.61   3
   7   2  -5 12362.0 1298.70   1
   6  -2  -5 14596.6 1521.87   1
   6   2  -5 18039.0 1564.04   1
   5  -2  -5 73674.0 3180.05   1
   5   2  -5 84064.5 3436.01   1
   4   2  -5 484820. 8603.04   1
   4  -2  -5 513315. 7802.99   1
   3   2  -5 21314.7 1878.47   1
   3  -2  -5 23013.0 1614.19   1
   2  -2  -5 2298.23 494.185   1
   2   2  -5 2374.83 637.883   1
   1   2  -5 1342.64 490.183   1
   1  -2  -5 2192.56 494.766   1
   0   2  -5 26476.9 2296.79   1
   0  -2  -5 30348.6 1891.81   1
  -1   2  -5 54402.0 3378.81   1
  -1  -2  -5 52213.4 2538.12   1
  -2   2  -5 679.538 366.433   1
  -2  -2  -5 962.201 356.680   1
  -3  -2  -5 14505.9 1428.64   1
  -4  -2  -5 41.6277 60.9796   3
  -4  -2  -5 28.4395 75.4956   1
  -5  -2  -5 15410.3 1718.18   3
   5  -2   5 14390.0 1786.57   2
  -6  -2  -5 1904.48 638.384   3
   6  -2   5 2189.30 779.639   2
   7  -2   5 1118.16 575.285   2
  -7  -2  -5 925.441 455.290   3
   8  -2   5 5008.58 1342.84   2
   9  -2   5 4906.60 1382.91   2
  10  -2   5 1325.63 754.713   2
 -11  -3   5-52.1511 136.808   3
  11  -3  -5 1308.58 979.709   2
 -10  -3   5-519.732 360.578   3
  -9  -3   5 8818.40 1468.66   3
   8   3  -5 4603.67 815.564   1
  -8  -3   5 6908.55 1269.14   3
   7   3  -5 4256.00 739.338   1
  -7  -3   5 4071.02 942.156   3
   6   3  -5 41.8668 77.8742   1
   5   3  -5 7500.02 1052.10   1
   4  -3  -5 74863.4 3173.64   1
   4   3  -5 75912.5 3482.83   1
   3  -3  -5-63.3418 151.429   1
   3   3  -5 588.025 345.992   1
   2   3  -5 376.412 262.556   1
   2  -3  -5 640.241 268.939   1
   1   3  -5 230172. 6886.84   1
   1  -3  -5 232865. 4748.39   1
   0  -3  -5 579.104 246.458   1
   0   3  -5 495.815 384.227   1
  -1  -3  -5 76195.9 3552.01   3
  -1   3  -5 76769.8 4227.22   1
  -1  -3  -5 79661.8 2738.86   1
  -2  -3  -5 356.512 334.560   3
  -2   3  -5 1797.39 710.486   1
  -2  -3  -5 1135.99 344.064   1
  -3  -3  -5 7772.72 1227.76   3
  -4  -3  -5 59138.5 3538.76   3
  -5  -3  -5 29276.4 2584.71   3
  -6  -3  -5 449.840 400.671   3
   6  -3   5 286.475 288.372   2
  -7  -3  -5 5365.37 1182.27   3
   7  -3   5 6975.80 1494.13   2
  -8  -3  -5 28691.0 2817.63   3
   8  -3   5 38152.1 3725.52   2
  -9  -3  -5 39793.8 3417.86   3
 -10  -4   5 19882.0 2419.39   3
  -9  -4   5 12829.9 1879.27   3
  -8  -4   5 27544.7 2670.29   3
  -7  -4   5 11451.5 1685.28   3
  -6  -4   5 20929.2 2204.62   3
  -5  -4   5 14167.9 1766.80   3
   5   4  -5 15089.5 1517.20   1
   4   4  -5 26158.3 2102.26   1
   3   4  -5 21894.2 2040.71   1
   2   4  -5 7505.25 1243.84   1
   1  -4  -5 180906. 4406.12   1
   1   4  -5 187898. 6551.56   1
   0  -4  -5 23830.9 1481.04   1
   0  -4  -5 21166.1 1954.54   3
   0   4  -5 17621.0 2070.85   1
  -1  -4  -5 38707.1 2763.23   3
  -1   4  -5 37871.8 3131.37   1
  -2   4  -5 3010.51 916.727   1
  -2  -4  -5 3125.86 837.507   3
  -3  -4  -5 894.065 493.103   3
  -4  -4  -5 13037.5 1783.65   3
  -5  -4  -5 9072.41 1558.72   3
  -6  -4  -5 212.796 226.575   3
  -7  -4  -5 312.668 307.918   3
  -8  -4  -5 3225.04 1081.37   3
  -9  -5   5 1154.17 599.710   3
  -8  -5   5 8438.98 1570.50   3
  -7  -5   5 18047.2 2254.29   3
  -6  -5   5 9504.15 1577.79   3
  -5  -5   5 5514.80 1189.55   3
  -4  -5   5 7587.40 1345.80   3
  -3  -5   5 30242.5 2619.69   3
   3   5  -5 28441.9 2421.20   1
   2   5  -5 85.5372 145.013   1
  -2  -5   5 601.180 364.947   3
   1  -5  -5 2779.20 753.582   3
   1   5  -5 2696.26 841.055   1
   0   5  -5 1067.37 534.398   1
   0  -5  -5 294.381 231.984   3
  -1  -5  -5 126623. 5374.00   3
  -1   5  -5 127502. 6027.57   1
  -2  -5  -5 37204.2 3052.70   3
  -2   5  -5 44112.3 3657.83   1
  -3  -5  -5 21908.4 2410.97   3
  -4  -5  -5 2797.72 887.074   3
  -5  -5  -5 2095.11 842.304   3
  -6  -5  -5 6210.88 1412.94   3
  -7  -6   5 5549.64 1364.67   3
  -6  -6   5 23583.0 2666.25   3
  -5  -6   5 334.035 279.539   3
  -4  -6   5 410.405 397.019   3
  -3  -6   5 6550.58 1311.50   3
  -2  -6   5 40571.4 3192.91   3
   1  -6  -5 19900.4 2131.49   3
  -1  -6   5 19422.3 2163.94   3
   0   6  -5 1047.72 548.388   1
   0  -6  -5 583.111 484.308   3
   0  -6   5 51.5172 118.452   3
  -1  -6  -5 46363.1 3523.34   3
  -1   6  -5 47582.2 3877.54   1
  -2  -6  -5 44143.2 3557.88   3
  -2   6  -5 41545.5 3801.85   1
  -3   6  -5 11361.8 2062.07   1
  -3  -6  -5 14837.9 2137.85   3
  -4  -6  -5 2111.30 842.153   3
  -4  -7   5-395.157 355.128   3
  -3  -7   5 1240.34 592.023   3
  -2  -7   5 21300.6 2447.06   3
  -1  -7   5 5401.63 1191.31   3
   1  -7  -5 5169.85 1171.87   3
   0  -7  -5 292.656 305.439   3
  -1  -7  -5 111.013 303.222   3
  -2  -7  -5 18916.4 2498.91   3
  -3   7  -5 11785.0 2174.01   1
  11   0  -6 2496.99 908.026   2
  10   0  -6 39828.8 3485.47   2
   9   0  -6 1071.07 493.333   2
   8   0  -6 1978.16 656.400   2
   8   0  -6 2532.33 708.427   1
   7   0  -6 9909.30 1348.41   2
   7   0  -6 10026.3 1292.04   1
   6   0  -6 114733. 4095.88   2
   6   0  -6 116894. 4348.52   1
   5   0  -6 210119. 5711.15   1
   5   0  -6 199950. 4636.74   2
   4   0  -6 3925.89 798.059   1
   4   0  -6 4560.35 560.145   2
   3   0  -6 31067.8 2341.09   1
   2   0  -6 18324.6 1790.92   1
   1   0  -6 428191. 8839.56   1
   0   0  -6 18978.1 1931.25   1
  -1   0  -6 2051.99 656.823   1
  -2   0  -6 8429.61 1360.33   1
  -3   0  -6 599000. 11766.4   1
  -4   0  -6 426778. 10319.3   1
  -5   0  -6 41533.3 3331.81   1
  -6   0  -6 3640.66 1046.29   1
  -7   0  -6 1329.49 635.545   1
  -8   0  -6 41623.6 3786.81   1
  11  -1  -6 1501.12 739.029   2
 -10  -1   6 192299. 6518.58   3
  10  -1  -6 198721. 7940.64   2
   9   1  -6 96020.1 4368.59   1
   9  -1  -6 93840.0 5058.03   2
   8   1  -6 3736.58 807.213   1
   8  -1  -6 4216.22 924.649   1
   8  -1  -6 2645.37 790.453   2
   7  -1  -6 271.337 278.303   1
   7   1  -6 196.959 254.171   1
   7  -1  -6 38.3061 263.538   2
   6  -1  -6 27019.0 2105.18   2
   6   1  -6 27691.0 2104.02   1
   6  -1  -6 25122.8 1983.05   1
   5   1  -6 165408. 5202.86   1
   5  -1  -6 146345. 4721.72   1
   4  -1  -6 244.564 240.036   1
   4   1  -6 173.605 287.961   1
   3   1  -6 4149.11 869.651   1
   3  -1  -6 3759.30 758.326   1
   2   1  -6 44235.3 2905.04   1
   2  -1  -6 42279.7 2573.61   1
   1   1  -6 40564.2 2845.90   1
   1  -1  -6 41944.9 2601.50   1
   0   1  -6 2708.91 737.048   1
   0  -1  -6 5059.23 921.281   1
  -1   1  -6 2626.33 787.007   1
  -1  -1  -6 2400.86 666.898   1
  -2   1  -6 1221.47 524.713   1
  -2  -1  -6 1248.84 500.601   1
  -3   1  -6 26974.3 2630.57   1
  -3  -1  -6 19220.6 1990.09   1
  -4   1  -6 45903.3 3546.75   1
  -4  -1  -6 40535.3 3006.26   1
  -5   1  -6 976.679 528.023   1
  -5  -1  -6 680.402 406.823   1
  -6  -1  -6 1364.20 586.564   1
  -6   1  -6 1571.35 682.328   1
  12  -2  -6 976.462 644.147   2
  11  -2  -6 8190.98 1745.58   2
 -10  -2   6 33959.6 2935.27   3
  10  -2  -6 34096.5 3430.94   2
   9   2  -6 8533.28 1249.59   1
  -9  -2   6 7377.34 1338.34   3
   9  -2  -6 7506.63 1504.46   2
   8   2  -6 794.510 392.377   1
   7   2  -6 479.471 329.466   1
   7  -2  -6 142.915 174.745   1
   6  -2  -6 1903.23 563.550   1
   6   2  -6 1310.53 484.807   1
   5   2  -6 245262. 6571.03   1
   5  -2  -6 256773. 6231.31   1
   4   2  -6 103815. 4362.54   1
   4  -2  -6 84100.0 3464.54   1
   3   2  -6 39702.0 2799.44   1
   3  -2  -6 46280.7 2502.40   1
   2   2  -6 40472.4 2887.92   1
   2  -2  -6 44338.7 2489.29   1
   1  -2  -6 892.900 365.943   1
   1   2  -6 881.283 440.766   1
   0   2  -6 22753.7 2315.88   1
   0  -2  -6 22598.8 1821.69   1
  -1  -2  -6 7082.06 1035.79   1
  -1   2  -6 7947.09 1421.06   1
  -2   2  -6 14994.1 1991.36   1
  -2  -2  -6 13591.9 1479.77   1
  -3   2  -6 52961.9 3843.17   1
  -3  -2  -6 51459.6 2972.71   1
  -4   2  -6 12629.8 1936.48   1
  -4  -2  -6 11257.8 1431.72   1
 -11  -3   6 3718.70 1017.44   3
  11  -3  -6 3038.59 1125.30   2
 -10  -3   6 2367.16 828.300   3
  -9  -3   6 682.494 367.554   3
  -8  -3   6 692.923 382.169   3
   8   3  -6 859.983 358.911   1
   7   3  -6 400.908 310.748   1
   6   3  -6 7203.76 1149.73   1
   5  -3  -6 65633.7 3306.59   1
   5   3  -6 73636.0 3666.74   1
   4  -3  -6 46974.4 2627.84   1
   4   3  -6 46066.5 2995.67   1
   3   3  -6 8952.39 1419.64   1
   3  -3  -6 6294.26 957.088   1
   2   3  -6 141098. 5600.27   1
   2  -3  -6 140579. 4199.60   1
   1   3  -6 198605. 6911.19   1
   1  -3  -6 190550. 4782.30   1
   0   3  -6 30794.7 2833.61   1
   0  -3  -6 32378.9 1983.35   1
  -1   3  -6 2855.36 878.090   1
  -1  -3  -6 2135.76 540.408   1
  -2   3  -6 13532.2 1972.08   1
  -3   3  -6 9211.74 1678.15   1
  -4   3  -6 46930.2 3903.62   1
 -10  -4   6 11325.5 1855.57   3
  -9  -4   6 5357.58 1270.85   3
  -8  -4   6 570.755 459.000   3
  -7  -4   6 6633.76 1304.48   3
   6   4  -6 37618.7 2520.62   1
   5   4  -6 2505.01 695.882   1
   4   4  -6 8398.58 1328.27   1
   3  -4  -6 563.450 285.411   1
   3   4  -6-16.1205 79.5410   1
   2  -4  -6 124981. 4051.27   1
   2   4  -6 125694. 5494.54   1
   1   4  -6 4237.27 1054.75   1
   1  -4  -6 6103.01 843.465   1
   0   4  -6 20791.9 2415.85   1
  -1   4  -6 5002.49 1226.52   1
  -2  -4  -6 187.422 221.602   3
  -2   4  -6-1.25617 301.987   1
  -3   4  -6 687.077 474.604   1
  -3  -4  -6 208.069 387.438   3
  -4   4  -6 2904.06 1018.49   1
  -4  -4  -6 3007.73 885.273   3
  -5  -4  -6 7488.24 1471.90   3
  -6  -4  -6 4549.26 1198.16   3
  -7  -4  -6 5848.34 1396.53   3
  -8  -5   6 12844.2 1993.91   3
  -7  -5   6-46.5732 132.152   3
  -6  -5   6 9586.70 1639.92   3
  -5  -5   6 8183.25 1476.34   3
  -4  -5   6 54803.6 3728.71   3
   3   5  -6 2037.21 712.965   1
   2   5  -6 8401.61 1488.94   1
   1   5  -6 1578.15 660.992   1
   0   5  -6 58545.6 4240.60   1
  -1  -5  -6 19593.9 2189.09   3
  -1   5  -6 14360.4 2167.36   1
  -2   5  -6 336.085 415.843   1
  -2  -5  -6 260.993 209.010   3
  -3   5  -6 4973.66 1333.11   1
  -3  -5  -6 3980.41 1075.84   3
  -4   5  -6 270.457 345.881   1
  -4  -5  -6 771.912 473.847   3
  -5  -5  -6 299.070 309.484   3
  -6  -6   6 17022.3 2310.17   3
  -5  -6   6 707.193 426.079   3
  -4  -6   6 5983.46 1316.59   3
  -3  -6   6 15336.0 2068.91   3
  -2  -6   6 30488.8 2858.83   3
   1   6  -6 1061.56 526.934   1
  -1  -6   6 694.062 421.543   3
   0  -6   6 100516. 4948.51   3
   0   6  -6 97988.2 5746.10   1
  -1  -6  -6 17476.4 2215.43   3
  -1   6  -6 20382.4 2698.50   1
  -2  -6  -6 44446.1 3654.91   3
  -2   6  -6 40615.9 3943.56   1
  -3   6  -6 913.335 441.995   1
  -3  -6  -6 795.000 562.558   3
  -4   6  -6 469.746 384.952   1
  -3  -7   6 1780.56 732.136   3
  -2  -7   6 5388.16 1293.99   3
  -1  -7   6 1892.31 712.679   3
   9   0  -7-382.617 294.151   1
   8   0  -7 217.033 344.390   1
   7   0  -7 6808.66 1190.86   1
   6   0  -7 232.797 212.370   1
   5   0  -7-159.574 174.347   1
   4   0  -7-80.7520 209.134   1
   3   0  -7 308.467 288.926   1
   2   0  -7 3406.97 843.430   1
   1   0  -7 6.80423 271.237   1
   0   0  -7 4598.43 1112.11   1
  -1   0  -7 95.0174 191.936   1
  -2   0  -7 313.694 380.373   1
  -3   0  -7 603.294 385.373   1
  -4   0  -7 100.623 173.906   1
  -5   0  -7-325.683 317.011   1
  -6   0  -7 210.220 266.865   1
  -7   0  -7-102.723 201.168   1
   9   1  -7 7398.93 1257.48   1
   8  -1  -7 6696.82 1218.73   1
   8   1  -7 5850.53 1060.75   1
   7   1  -7 13348.5 1593.95   1
   7  -1  -7 13607.1 1634.48   1
   6   1  -7 31360.4 2427.71   1
   6  -1  -7 32881.7 2454.13   1
   5  -1  -7 1175.47 462.407   1
   5   1  -7 646.312 367.322   1
   4   1  -7 666.393 355.100   1
   4  -1  -7 419.431 268.687   1
   3   1  -7 691.840 497.450   1
   3  -1  -7-50.6876 87.5188   1
   2   1  -7 51356.3 3398.51   1
   2  -1  -7 42197.4 2828.59   1
   1   1  -7 11987.5 1678.51   1
   1  -1  -7 12272.1 1544.87   1
   0   1  -7 11592.2 1697.73   1
   0  -1  -7 10309.5 1452.15   1
  -1   1  -7 21291.7 2361.48   1
  -1  -1  -7 22594.2 2175.56   1
  -2   1  -7 30389.9 2907.24   1
  -2  -1  -7 29314.8 2553.28   1
  -3   1  -7 145877. 6582.13   1
  -3  -1  -7 147479. 5891.52   1
  -4   1  -7 2121.20 835.712   1
  -4  -1  -7 1908.20 693.642   1
  -5   1  -7 355.421 344.236   1
  -5  -1  -7 514.599 375.303   1
  -6   1  -7 67.6498 171.618   1
  -7   1  -7 54057.7 4569.12   1
  -8   1  -7 1137.76 678.879   1
  10   2  -7 49487.9 3331.03   1
 -10  -2   7 53306.1 3874.45   3
   9   2  -7 386.288 371.892   1
   8   2  -7 644.434 389.769   1
   7   2  -7 929.516 459.646   1
   7  -2  -7 48.9243 145.082   1
   6  -2  -7 107523. 4493.26   1
   6   2  -7 103142. 4503.11   1
   5   2  -7 48764.4 3208.44   1
   5  -2  -7 47470.6 2854.30   1
   4   2  -7-87.1662 195.203   1
   4  -2  -7-4.59237 243.699   1
   3   2  -7 20750.2 2201.42   1
   3  -2  -7 16475.1 1650.03   1
   2   2  -7 68099.9 4076.89   1
   2  -2  -7 61351.2 3188.01   1
   1  -2  -7 2498.28 665.585   1
   1   2  -7 3011.68 877.440   1
   0  -2  -7 669.931 389.757   1
   0   2  -7 309.190 378.698   1
  -1  -2  -7 201.517 192.358   1
  -1   2  -7 2.29687 176.134   1
  -2   2  -7 46622.2 3773.73   1
  -2  -2  -7 40583.4 2792.82   1
  -3   2  -7 23201.2 2740.11   1
  -3  -2  -7 23192.7 2163.47   1
  -4   2  -7 6469.93 1506.19   1
  -5   2  -7 1202.19 652.561   1
  -6   2  -7 16802.1 2545.92   1
  -7   2  -7 708.022 539.266   1
 -10  -3   7 8723.37 1649.45   3
  -9  -3   7 1918.55 752.244   3
   8   3  -7 828.642 413.980   1
   7   3  -7 33765.5 2505.89   1
   6  -3  -7 71846.2 3815.81   1
   6   3  -7 72493.1 3817.03   1
   5  -3  -7 96489.9 4177.74   1
   5   3  -7 97683.3 4603.27   1
   4   3  -7 6991.92 1257.40   1
   4  -3  -7 11407.2 1364.48   1
   3   3  -7 133702. 5721.88   1
   3  -3  -7 136928. 4585.06   1
   2   3  -7 82766.1 4670.73   1
   2  -3  -7 81765.6 3504.86   1
   1   3  -7 97868.2 5193.03   1
   1  -3  -7 95350.4 3734.09   1
   0   3  -7 177.752 233.823   1
   0  -3  -7 1178.64 409.281   1
  -1   3  -7 5165.05 1275.25   1
  -1  -3  -7 2861.91 658.503   1
  -2   3  -7 36270.8 3443.25   1
  -3   3  -7 26869.5 3085.05   1
  -4   3  -7 5072.49 1409.36   1
  -5   3  -7 170.759 665.663   1
  -6   3  -7 6512.49 1724.26   1
  -9  -4   7 1567.40 688.784   3
  -8  -4   7 8782.25 1585.54   3
   6   4  -7 8451.13 1337.03   1
   5   4  -7 22.6773 129.280   1
   4   4  -7 481.405 439.944   1
   4  -4  -7 379.224 250.600   1
   3  -4  -7 7017.02 1069.95   1
   3   4  -7 5648.25 1244.95   1
   2  -4  -7 22783.0 1828.28   1
   2   4  -7 21560.9 2432.75   1
   1   4  -7 8165.26 1569.17   1
   0   4  -7 7451.19 1527.40   1
  -1   4  -7-66.4498 163.017   1
  -2   4  -7 2426.95 979.210   1
  -3   4  -7 20526.6 2796.00   1
  -4   4  -7 962.844 677.959   1
  -5   4  -7 2738.91 1067.88   1
  -7  -5   7 3792.02 1115.12   3
  -6  -5   7 5878.15 1309.07   3
  -5  -5   7 14292.3 1995.46   3
   4   5  -7 20002.9 2279.77   1
   3   5  -7 15537.7 2093.13   1
   2   5  -7 5884.00 1334.89   1
   1   5  -7 18051.7 2418.53   1
   0   5  -7 16452.0 2381.07   1
  -1   5  -7 24644.5 3011.53   1
  -2   5  -7 2538.27 973.413   1
  -3   5  -7 889.993 697.643   1
  -4   5  -7 7078.12 1758.95   1
  -4  -6   7 166.210 229.216   3
  -3  -6   7 32332.5 3095.42   3
  -2  -6   7 1135.56 614.225   3
  -1  -6   7 24188.6 2598.47   3
   1   6  -7 33758.3 3436.10   1
   0  -6   7 99764.2 5165.62   3
   0   6  -7 94250.4 5961.84   1
  -1   6  -7 15050.9 2495.94   1
  -2   6  -7 2231.91 955.677   1
  10   0  -8 1813.94 749.182   1
   9   0  -8 354.391 184.921   1
   8   0  -8 11229.5 1616.47   1
   7   0  -8 190185. 6454.39   1
   6   0  -8 17395.8 1931.19   1
   5   0  -8 12483.7 1656.13   1
   4   0  -8 8785.58 1424.27   1
   3   0  -8 193571. 6733.23   1
   2   0  -8 106194. 5032.00   1
   1   0  -8 13380.1 1826.41   1
   0   0  -8 2486.78 796.379   1
  -1   0  -8 20024.3 2328.06   1
  -2   0  -8 161126. 6817.48   1
  -3   0  -8 5025.23 1260.10   1
  -4   0  -8 1421.01 636.194   1
  -5   0  -8 16220.8 2398.64   1
  -6   0  -8 12996.5 2199.54   1
  10   1  -8-590.865 383.399   1
   9   1  -8 957.161 463.411   1
   9  -1  -8 766.663 433.439   1
   8   1  -8 712.622 388.125   1
   8  -1  -8 231.766 236.756   1
   7  -1  -8 2620.98 752.053   1
   7   1  -8 1064.40 498.378   1
   6  -1  -8 8962.42 1373.03   1
   6   1  -8 11640.0 1588.05   1
   5  -1  -8 1611.26 596.980   1
   5   1  -8 1737.01 634.125   1
   4   1  -8 3297.86 888.589   1
   4  -1  -8 2371.19 745.284   1
   3   1  -8 34861.8 2944.11   1
   3  -1  -8 34109.4 2700.50   1
   2  -1  -8 7565.83 1296.30   1
   2   1  -8 8371.29 1500.75   1
   1  -1  -8-111.426 162.804   1
   1   1  -8 114.327 201.632   1
   0  -1  -8 2944.93 854.698   1
   0   1  -8 2696.04 857.525   1
  -1   1  -8 87483.9 5132.27   1
  -1  -1  -8 94279.4 4802.04   1
  -2   1  -8 259568. 9079.80   1
  -2  -1  -8 247043. 7978.93   1
  -3   1  -8 2228.95 857.167   1
  -3  -1  -8 1518.90 637.323   1
  -4   1  -8 12626.4 2169.97   1
  -4  -1  -8 9982.20 1703.87   1
  -5   1  -8 14851.0 2348.02   1
  -5  -1  -8 10448.8 1778.57   1
  -6   1  -8 100.121 213.594   1
  -7   1  -8 6139.00 1604.22   1
  10   2  -8 8381.18 1410.76   1
   9   2  -8 3086.48 822.106   1
   8  -2  -8 4666.61 1064.72   1
   8   2  -8 2048.39 664.782   1
   7  -2  -8 17342.2 2001.25   1
   7   2  -8 14893.8 1797.23   1
   6   2  -8 43457.6 3152.59   1
   6  -2  -8 44465.4 3032.58   1
   5   2  -8 18230.0 2111.88   1
   5  -2  -8 18181.1 1905.73   1
   4   2  -8 34322.4 2962.43   1
   4  -2  -8 38356.4 2724.57   1
   3   2  -8 140436. 6158.97   1
   3  -2  -8 147436. 5290.71   1
   2  -2  -8 782.878 394.638   1
   2   2  -8 1572.09 713.918   1
   1  -2  -8 541.203 325.327   1
   1   2  -8 629.072 385.776   1
   0  -2  -8 3257.80 846.509   1
   0   2  -8 2606.91 887.644   1
  -1   2  -8 19367.2 2526.71   1
  -1  -2  -8 20291.7 2081.64   1
  -2   2  -8 12068.3 2063.76   1
  -2  -2  -8 15284.0 1855.85   1
  -3   2  -8 8642.27 1783.92   1
  -4   2  -8 1478.15 789.855   1
  -5   2  -8 13633.2 2382.18   1
  -6   2  -8 60419.5 5102.63   1
   9   3  -8 984.294 465.377   1
   8   3  -8 8910.52 1392.59   1
   7  -3  -8 81616.8 4455.48   1
   7   3  -8 87418.4 4432.38   1
   6  -3  -8 99705.8 4693.08   1
   6   3  -8 100231. 4882.21   1
   5  -3  -8 633.120 373.034   1
   5   3  -8 551.100 419.156   1
   4   3  -8 54402.6 3825.91   1
   4  -3  -8 52014.5 3089.66   1
   3   3  -8 93874.7 5179.48   1
   3  -3  -8 102101. 4308.98   1
   2   3  -8 11769.7 1876.76   1
   2  -3  -8 13314.1 1532.31   1
   1   3  -8 822.463 500.629   1
   1  -3  -8 776.149 386.357   1
   0   3  -8 622.109 503.540   1
   0  -3  -8 87.8416 140.936   1
  -1   3  -8 1747.80 781.183   1
  -2   3  -8 8658.64 1792.33   1
  -3   3  -8 11356.1 2107.86   1
  -4   3  -8 2653.05 1034.57   1
  -5   3  -8 2516.58 1079.36   1
  -8  -4   8 19891.4 2497.06   3
   6   4  -8 34712.4 2920.40   1
   5  -4  -8 1426.24 598.277   1
   5   4  -8 287.347 247.040   1
   4   4  -8 2605.08 860.182   1
   4  -4  -8 1312.98 583.198   1
   3  -4  -8 47.3296 146.844   1
   3   4  -8 561.064 407.068   1
   2   4  -8 42416.3 3691.28   1
   2  -4  -8 44005.9 2692.27   1
   1   4  -8 2059.17 814.762   1
   0   4  -8-25.7885 116.717   1
  -1   4  -8 2418.38 942.780   1
  -2   4  -8 5889.11 1583.33   1
  -3   4  -8 30161.7 3594.86   1
  -4   4  -8 6055.95 1611.25   1
   4   5  -8 47347.3 3761.62   1
   3   5  -8 8099.24 1627.12   1
   2   5  -8 2675.65 936.572   1
   1   5  -8 2908.69 999.060   1
   0   5  -8 16780.8 2554.56   1
  -1   5  -8 17525.8 2692.35   1
  -2   5  -8 884.744 613.855   1
   1   6  -8 39621.3 3897.68   1
   0   6  -8 3841.65 1241.26   1
   9   0  -9 629.794 407.082   1
   8   0  -9 91.3564 158.558   1
   7   0  -9 418.636 425.198   1
   6   0  -9 1048.40 496.054   1
   5   0  -9-97.3154 162.271   1
   4   0  -9 243.182 270.141   1
   3   0  -9 65.2152 425.643   1
   2   0  -9 500.329 423.050   1
   1   0  -9 299.970 414.400   1
   0   0  -9 336.380 294.257   1
  -1   0  -9 633.962 439.898   1
  -2   0  -9-227.496 272.800   1
  -3   0  -9 406.637 468.031   1
  -4   0  -9 107.639 213.295   1
  -5   0  -9 1518.92 752.384   1
  -6   0  -9 603.694 499.331   1
   9   1  -9-316.155 282.605   1
   9  -1  -9-89.0251 167.584   1
   8  -1  -9 46943.4 3509.76   1
   8   1  -9 38548.5 3113.81   1
   7   1  -9 5398.37 1157.42   1
   7  -1  -9 4143.54 991.157   1
   6  -1  -9 363.803 334.665   1
   6   1  -9 278.096 283.802   1
   5  -1  -9 600.960 413.692   1
   5   1  -9 980.263 552.444   1
   4   1  -9 678.803 453.519   1
   4  -1  -9 3069.97 863.941   1
   3   1  -9 19644.7 2370.55   1
   3  -1  -9 18715.1 2161.27   1
   2   1  -9 106.336 190.695   1
   2  -1  -9 272.562 182.735   1
   1  -1  -9 1429.71 596.297   1
   1   1  -9 86.4033 172.048   1
   0  -1  -9 8229.71 1494.66   1
   0   1  -9 5952.90 1380.75   1
  -1   1  -9 44975.6 3934.54   1
  -1  -1  -9 42671.8 3478.08   1
  -2   1  -9 9312.34 1802.74   1
  -2  -1  -9 11631.6 1870.64   1
  -3   1  -9 2242.31 902.880   1
  -3  -1  -9 1020.89 584.854   1
  -4   1  -9 384.751 390.501   1
  -4  -1  -9 98.3297 182.949   1
  -5   1  -9 33054.1 3727.12   1
   9   2  -9 4149.01 1031.87   1
   8   2  -9 7016.26 1321.20   1
   8  -2  -9 6439.08 1355.48   1
   7   2  -9 2589.79 821.105   1
   7  -2  -9 1964.53 688.979   1
   6   2  -9 1364.36 617.364   1
   6  -2  -9 945.426 458.566   1
   5   2  -9 10477.4 1719.11   1
   5  -2  -9 10911.7 1567.84   1
   4   2  -9 144074. 6507.30   1
   4  -2  -9 139772. 5557.70   1
   3   2  -9 23468.3 2663.63   1
   3  -2  -9 19968.7 2095.58   1
   2  -2  -9 7655.23 1311.21   1
   2   2  -9 7507.82 1545.70   1
   1  -2  -9 5036.82 1086.91   1
   1   2  -9 8038.22 1631.42   1
   0   2  -9 20643.8 2700.00   1
   0  -2  -9 18556.3 2121.04   1
  -1   2  -9 129685. 6880.45   1
  -1  -2  -9 140102. 5884.66   1
  -2  -2  -9 4098.70 1038.75   1
  -2   2  -9 5072.51 1391.97   1
  -3   2  -9 969.983 459.179   1
  -4   2  -9 8222.36 1877.63   1
   9   3  -9 22784.9 2372.25   1
   8   3  -9 630.420 391.284   1
   7  -3  -9 92175.4 4940.09   1
   7   3  -9 99064.1 5061.32   1
   6   3  -9 4358.81 1188.41   1
   6  -3  -9 4576.67 1089.11   1
   5  -3  -9 2936.74 811.330   1
   5   3  -9 2975.60 991.473   1
   4   3  -9 62709.0 4399.96   1
   4  -3  -9 67031.8 3754.22   1
   3   3  -9 10467.8 1848.10   1
   3  -3  -9 8719.91 1338.58   1
   2  -3  -9 3273.48 805.221   1
   2   3  -9 2684.28 911.029   1
   1   3  -9 6389.39 1480.10   1
   1  -3  -9 5112.70 1008.33   1
   0   3  -9 7318.50 1629.06   1
  -1   3  -9 727.806 571.798   1
  -2   3  -9-695.661 534.595   1
  -3   3  -9 887.817 621.545   1
   7   4  -9 40944.6 3286.28   1
   6   4  -9 1057.40 539.298   1
   5  -4  -9 6770.05 1275.13   1
   5   4  -9 5742.15 1309.15   1
   4   4  -9 5088.54 1254.33   1
   4  -4  -9 6273.10 1170.66   1
   3   4  -9 16348.5 2367.26   1
   3  -4  -9 19884.7 2002.65   1
   2   4  -9 21905.0 2796.60   1
   1   4  -9 2945.04 1071.22   1
   0   4  -9 9750.91 1969.70   1
  -1   4  -9 14109.0 2438.82   1
   4   5  -9 7950.48 1624.61   1
   3   5  -9 774.582 523.098   1
   2   5  -9 1323.47 679.529   1
   1   5  -9 11629.0 2130.85   1
   7   0 -10 1490.83 680.163   1
   6   0 -10 3516.58 980.998   1
   5   0 -10 1985.31 737.145   1
   4   0 -10 15957.2 2159.37   1
   3   0 -10 500.753 472.445   1
   2   0 -10 5891.14 1356.71   1
   1   0 -10 17698.8 2390.53   1
   0   0 -10 9759.82 1778.05   1
  -1   0 -10 849.244 576.656   1
  -2   0 -10 838.512 544.848   1
  -3   0 -10 2741.70 1004.61   1
  -4   0 -10 27134.8 3300.99   1
   8   1 -10 22581.1 2543.14   1
   7   1 -10 2103.74 771.020   1
   7  -1 -10 1378.93 581.387   1
   6  -1 -10 432.640 418.188   1
   6   1 -10 747.956 483.351   1
   5   1 -10 117224. 5933.89   1
   5  -1 -10 117699. 5570.09   1
   4   1 -10 84805.4 5176.27   1
   4  -1 -10 93434.8 5005.29   1
   3   1 -10 663.486 471.041   1
   3  -1 -10-9.92428 82.7119   1
   2   1 -10-917.073 548.155   1
   2  -1 -10 395.658 336.121   1
   1  -1 -10 15885.7 2149.81   1
   1   1 -10 15368.6 2316.76   1
   0   1 -10 144902. 7314.79   1
   0  -1 -10 150880. 6739.40   1
  -1  -1 -10 9158.40 1716.95   1
  -1   1 -10 10945.4 2045.05   1
  -2   1 -10 9361.00 1958.83   1
  -2  -1 -10 8539.77 1736.50   1
  -3   1 -10 15075.2 2485.94   1
  -3  -1 -10 16921.9 2419.97   1
   7   2 -10 2234.31 835.210   1
   7  -2 -10 2087.45 755.361   1
   6   2 -10 7381.95 1466.07   1
   6  -2 -10 6916.27 1354.13   1
   5   2 -10 99618.6 5604.60   1
   5  -2 -10 108393. 5286.16   1
   4  -2 -10 1784.41 676.089   1
   4   2 -10 876.711 602.294   1
   3   2 -10 3282.47 1028.30   1
   3  -2 -10 3902.25 1008.55   1
   2  -2 -10 375.744 160.623   1
   2   2 -10 751.927 489.311   1
   1  -2 -10 3912.41 1024.39   1
   1   2 -10 5326.56 1443.53   1
   0   2 -10 45739.3 4247.53   1
   0  -2 -10 47421.8 3596.69   1
  -1   2 -10 44123.2 4235.21   1
  -1  -2 -10 51515.1 3817.37   1
  -2   2 -10 4186.95 1404.32   1
   7   3 -10 2256.29 838.094   1
   6   3 -10 2295.55 901.714   1
   6  -3 -10 975.006 501.198   1
   5  -3 -10 3023.18 849.409   1
   5   3 -10 3464.38 1092.28   1
   4   3 -10 3435.89 1092.35   1
   4  -3 -10 2080.81 751.061   1
   3   3 -10 887.447 562.981   1
   3  -3 -10 534.935 437.877   1
   2  -3 -10 1222.73 520.419   1
   2   3 -10 1842.70 823.601   1
   1   3 -10-451.370 418.016   1
   0   3 -10 6404.40 1654.49   1
   5   4 -10 14625.5 2244.00   1
   5  -4 -10 12124.8 1777.15   1
   4   4 -10 14221.6 2251.38   1
   4  -4 -10 12149.3 1713.36   1
   3   4 -10 3301.69 1116.31   1
   2   4 -10 690.068 520.488   1
   5   0 -11 373.412 341.034   1
   4   0 -11-409.797 368.651   1
   3   0 -11 29.7913 139.154   1
   2   0 -11 994.295 583.393   1
   1   0 -11-691.281 488.428   1
   0   0 -11 309.500 346.764   1
   4   1 -11 4805.01 1265.74   1
   4  -1 -11 4386.89 1122.53   1
   3   1 -11 1764.47 804.720   1
   3  -1 -11 3509.98 1021.87   1
   2   1 -11 5604.51 1516.44   1
   2  -1 -11 4898.21 1246.61   1
   1   1 -11 3168.03 1108.16   1
   1  -1 -11 3703.86 1127.74   1
   0  -1 -11 5207.54 1306.66   1
  -1  -1 -11-240.815 296.583   1
   4  -2 -11 1891.62 795.648   1
   3  -2 -11 2015.29 736.359   1
   2  -2 -11-354.349 319.875   1
   1  -2 -11 71539.7 4577.41   1
   0  -2 -11 36884.4 3344.87   1
   3  -3 -11 2029.34 771.948   1
   0   0   0    0.00    0.00   0
TITL ml025a in P2(1)/c
REM P2(1)/c (#14 in standard setting)
CELL 0.71073   9.268875   5.995415   8.410361  90.0000 102.4785  90.0000
ZERR    2.00   0.000626   0.000337   0.000549   0.0000   0.0067   0.0000
LATT  1
SYMM -x, y+1/2,-z+1/2
SFAC C H N
UNIT 22.00 16.00 2.00
TREF
HKLF 4
END
;
_shelx_hkl_checksum              51124
loop_
_space_group_symop_operation_xyz
'x, y, z'
'-x, y+1/2, -z+1/2'
'-x, -y, -z'
'x, -y-1/2, z-1/2'
loop_
_atom_site_label
_atom_site_type_symbol
_atom_site_fract_x
_atom_site_fract_y
_atom_site_fract_z
_atom_site_U_iso_or_equiv
_atom_site_adp_type
_atom_site_occupancy
_atom_site_site_symmetry_order
_atom_site_calc_flag
_atom_site_refinement_flags_posn
_atom_site_refinement_flags_adp
C1 C 0.45105(13) 0.2110(2) 0.53806(14) 0.0144(3) Uani 1 1 d . .
H1 H 0.4180 0.3538 0.5637 0.017 Uiso 1 1 calc R U
C2 C 0.58951(13) 0.1345(2) 0.62029(14) 0.0139(3) Uani 1 1 d . .
C3 C 0.68279(13) 0.2642(2) 0.74323(15) 0.0167(3) Uani 1 1 d . .
H3 H 0.6506 0.4069 0.7704 0.020 Uiso 1 1 calc R U
C4 C 0.81743(14) 0.1865(2) 0.82226(15) 0.0195(3) Uani 1 1 d . .
H4 H 0.8777 0.2747 0.9044 0.023 Uiso 1 1 calc R U
C5 C 0.36031(13) 0.0815(2) 0.41880(14) 0.0138(3) Uani 1 1 d . .
C6 C 0.21747(13) 0.1551(2) 0.33436(15) 0.0173(3) Uani 1 1 d . .
H6 H 0.1818 0.2963 0.3601 0.021 Uiso 1 1 calc R U
C7 C 0.13178(14) 0.0263(2) 0.21777(15) 0.0196(3) Uani 1 1 d . .
H7 H 0.0374 0.0785 0.1627 0.024 Uiso 1 1 calc R U
loop_
_atom_site_aniso_label
_atom_site_aniso_U_11
_atom_site_aniso_U_22
_atom_site_aniso_U_33
_atom_site_aniso_U_23
_atom_site_aniso_U_13
_atom_site_aniso_U_12
C1 0.0170(6) 0.0119(6) 0.0159(6) 0.0009(4) 0.0070(5) 0.0007(5)
C2 0.0160(6) 0.0142(6) 0.0131(5) 0.0006(4) 0.0065(4) -0.0010(5)
C3 0.0185(6) 0.0165(6) 0.0164(6) -0.0024(5) 0.0065(5) -0.0024(5)
C4 0.0184(6) 0.0229(7) 0.0167(6) -0.0025(5) 0.0028(5) -0.0046(5)
C5 0.0156(6) 0.0140(6) 0.0132(5) 0.0013(4) 0.0059(4) -0.0002(5)
C6 0.0166(6) 0.0171(6) 0.0192(6) 0.0014(5) 0.0058(5) 0.0016(5)
C7 0.0156(6) 0.0236(7) 0.0193(6) 0.0034(5) 0.0029(5) 0.0015(5)
loop_
_atom_type_symbol
_atom_type_description
_atom_type_scat_dispersion_real
_atom_type_scat_dispersion_imag
_atom_type_scat_source
C C 0.0033 0.0016 'International Tables Vol C Tables 4.2.6.8 and 6.1.1.4'
H H 0.0000 0.0000 'International Tables Vol C Tables 4.2.6.8 and 6.1.1.4'
loop_
_geom_angle_atom_site_label_1
_geom_angle_atom_site_label_2
_geom_angle_atom_site_label_3
_geom_angle
_geom_angle_site_symmetry_3
C5 C1 C2 121.27(11) .
C1 C2 C3 121.85(11) .
C1 C2 C5 119.37(11) 3_656
C3 C2 C5 118.78(11) 3_656
C4 C3 C2 120.98(12) .
C3 C4 C7 120.34(12) 3_656
C1 C5 C6 122.28(11) .
C1 C5 C2 119.37(11) 3_656
C6 C5 C2 118.35(11) 3_656
C7 C6 C5 121.06(12) .
C6 C7 C4 120.48(12) 3_656
loop_
_geom_bond_atom_site_label_1
_geom_bond_atom_site_label_2
_geom_bond_distance
_geom_bond_site_symmetry_2
C1 C5 1.3970(17) .
C1 C2 1.3972(17) .
C2 C3 1.4267(17) .
C2 C5 1.4379(17) 3_656
C3 C4 1.3630(18) .
C4 C7 1.4252(19) 3_656
C5 C6 1.4303(17) .
C5 C2 1.4380(17) 3_656
C6 C7 1.3612(18) .
C7 C4 1.4252(19) 3_656
