#------------------------------------------------------------------------------
#$Date: 2016-04-05 18:22:09 +0300 (Tue, 05 Apr 2016) $
#$Revision: 181601 $
#$URL: svn://www.crystallography.net/cod/cif/7/22/42/7224290.cif $
#------------------------------------------------------------------------------
#
# This file is available in the Crystallography Open Database (COD),
# http://www.crystallography.net/
#
# All data on this site have been placed in the public domain by the
# contributors.
#
data_7224290
loop_
_publ_author_name
'Fabbiani, Francesca P. A.'
'Bergantin, Stefano'
'Gavezzotti, Angelo'
'Rizzato, Silvia'
'Moret, Massimo'
_publ_section_title
;
 X-ray diffraction and computational studies of the pressure-dependent
 tetrachloroethane solvation of diphenylanthracene
;
_journal_issue                   12
_journal_name_full               CrystEngComm
_journal_page_first              2173
_journal_paper_doi               10.1039/C6CE00055J
_journal_volume                  18
_journal_year                    2016
_chemical_formula_moiety         'C26 H18'
_chemical_formula_sum            'C26 H18'
_chemical_formula_weight         330.40
_chemical_name_systematic        9,10-Diphenylanthracene
_space_group_crystal_system      monoclinic
_space_group_IT_number           15
_space_group_name_Hall           '-C 2yc'
_space_group_name_H-M_alt        'C 1 2/c 1'
_symmetry_space_group_name_Hall  '-C 2yc'
_symmetry_space_group_name_H-M   'C 1 2/c 1'
_atom_sites_solution_hydrogens   geom
_atom_sites_solution_primary     'known coordinates'
_atom_sites_solution_secondary   'known coordinates'
_audit_creation_method           SHELXL-2014/7
_audit_update_record
;
2015-12-16 deposited with the CCDC.
2016-02-17 downloaded from the CCDC.
;
_cell_angle_alpha                90
_cell_angle_beta                 88.483(17)
_cell_angle_gamma                90
_cell_formula_units_Z            4
_cell_length_a                   10.041(2)
_cell_length_b                   13.150(2)
_cell_length_c                   11.378(2)
_cell_measurement_reflns_used    638
_cell_measurement_temperature    296(2)
_cell_measurement_theta_max      20.3
_cell_measurement_theta_min      3.1
_cell_volume                     1501.8(5)
_computing_cell_refinement       'Apex2 (Bruker AXS, 2006)'
_computing_data_collection       'Apex2 (Bruker AXS, 2006)'
_computing_data_reduction        'Apex2 (Bruker AXS, 2006)'
_computing_structure_refinement  'SHELXL-2014/7 (Sheldrick, 2014)'
_computing_structure_solution    'known coordinates'
_diffrn_ambient_temperature      296(2)
_diffrn_measured_fraction_theta_full 0.614
_diffrn_measured_fraction_theta_max 0.614
_diffrn_measurement_device       'Bruker AXS APEX II'
_diffrn_measurement_device_type  Area
_diffrn_measurement_method       '\f & \w scans'
_diffrn_radiation_monochromator  graphite
_diffrn_radiation_source         'fine-focus sealed tube'
_diffrn_radiation_type           MoK\a
_diffrn_radiation_wavelength     0.71073
_diffrn_reflns_av_R_equivalents  0.0416
_diffrn_reflns_av_unetI/netI     0.0510
_diffrn_reflns_Laue_measured_fraction_full 0.614
_diffrn_reflns_Laue_measured_fraction_max 0.614
_diffrn_reflns_limit_h_max       8
_diffrn_reflns_limit_h_min       -8
_diffrn_reflns_limit_k_max       12
_diffrn_reflns_limit_k_min       -11
_diffrn_reflns_limit_l_max       9
_diffrn_reflns_limit_l_min       -10
_diffrn_reflns_number            1704
_diffrn_reflns_point_group_measured_fraction_full 0.614
_diffrn_reflns_point_group_measured_fraction_max 0.614
_diffrn_reflns_reduction_process
;
 Scaled and merged with SORTAV
 R.H. Blessing, (1987) Cryst. Rev. 1, 3-58
 R.H. Blessing, (1989) J. Appl. Cryst. 22, 396-397
;
_diffrn_reflns_theta_full        19.779
_diffrn_reflns_theta_max         19.779
_diffrn_reflns_theta_min         2.553
_exptl_absorpt_coefficient_mu    0.083
_exptl_absorpt_correction_T_max  0.8837
_exptl_absorpt_correction_T_min  0.5255
_exptl_absorpt_correction_type   multi-scan
_exptl_absorpt_process_details
;
SADABS V.2008/1
SHADE (Parsons, 2004)
;
_exptl_crystal_colour            yellow
_exptl_crystal_density_diffrn    1.461
_exptl_crystal_description       block
_exptl_crystal_F_000             696
_exptl_crystal_recrystallization_method
'Re-crystallisation from solvent: 1,1,2,2-tetrachloroethane'
_exptl_crystal_size_max          0.20
_exptl_crystal_size_mid          0.15
_exptl_crystal_size_min          0.08
_refine_diff_density_max         0.122
_refine_diff_density_min         -0.159
_refine_diff_density_rms         0.043
_refine_ls_extinction_coef       0.011(4)
_refine_ls_extinction_expression Fc^*^=kFc[1+0.001xFc^2^\l^3^/sin(2\q)]^-1/4^
_refine_ls_extinction_method     'SHELXL-2014/7 (Sheldrick 2014'
_refine_ls_goodness_of_fit_ref   1.058
_refine_ls_hydrogen_treatment    constr
_refine_ls_matrix_type           full
_refine_ls_number_parameters     119
_refine_ls_number_reflns         422
_refine_ls_number_restraints     128
_refine_ls_restrained_S_all      0.934
_refine_ls_R_factor_all          0.0816
_refine_ls_R_factor_gt           0.0528
_refine_ls_shift/su_max          0.000
_refine_ls_shift/su_mean         0.000
_refine_ls_structure_factor_coef Fsqd
_refine_ls_weighting_details
'w=1/[\s^2^(Fo^2^)+(0.1051P)^2^+0.8554P] where P=(Fo^2^+2Fc^2^)/3'
_refine_ls_weighting_scheme      calc
_refine_ls_wR_factor_gt          0.1294
_refine_ls_wR_factor_ref         0.1475
_reflns_Friedel_coverage         0.000
_reflns_number_gt                308
_reflns_number_total             422
_reflns_threshold_expression     'I > 2\s(I)'
_cod_data_source_file            c6ce00055j4.cif
_cod_data_source_block           diphenylanthracene_3_GPa
_cod_depositor_comments
'Adding full bibliography for 7224288--7224290.cif.'
_cod_database_code               7224290
_shelx_shelxl_version_number     2014/7
_shelx_space_group_comment
;
The symmetry employed for this shelxl refinement is uniquely defined
by the following loop, which should always be used as a source of
symmetry information in preference to the above space-group names.
They are only intended as comments.
;
_shelx_res_file
;

    dpantr30kbar.res created by SHELXL-2014/7


TITL sad in C2/c
CELL 0.71073  10.0410  13.1498  11.3778  90.000  88.483  90.000
ZERR    4.00   0.0021   0.0021   0.0021   0.000   0.017   0.000
LATT  7
SYMM -X, Y, 0.5-Z
SFAC C H
UNIT 104 72

OMIT 6 6 2
OMIT 6 4 0
OMIT -3 3 7
omit -5 1 2

OMIT -5 5 8
OMIT 2 6 3
OMIT 1 5 9
OMIT -3 1 9
OMIT 5 7 2
OMIT -8 6 2

TEMP 23.000
l.s. 10
list 6
fmap 2
plan -10
acta
rigu

+grade-XXX_dpa.dfix
eqiv $1 1/2-x, 1/2-y, -z
mpla 6 c8 > c13
mpla 14 c1 > c7 c1_$1 c2_$1 c3_$1 c4_$1 c5_$1 c6_$1 c7_$1

rem AFIX  66
WGHT    0.105100    0.855400
EXTI    0.011367
FVAR       0.63208
C1    1    0.020006    0.130116   -0.037896    11.00000    0.04097    0.02115 =
         0.04210    0.00094   -0.00255   -0.00092
AFIX  43
H1    2    0.025229    0.071826   -0.084076    11.00000   -1.20000
AFIX   0
C2    1   -0.096970    0.155911    0.013154    11.00000    0.03411    0.03408 =
         0.05667   -0.00412   -0.00259   -0.00698
AFIX  43
H2    2   -0.171101    0.115100    0.001488    11.00000   -1.20000
AFIX   0
C5    1    0.123620    0.279074    0.049587    11.00000    0.03369    0.02037 =
         0.04107    0.00354   -0.00304    0.00247
C4    1   -0.003477    0.303007    0.099454    11.00000    0.03757    0.02062 =
         0.04064   -0.00021   -0.00435   -0.00290
AFIX  43
H4    2   -0.013192    0.361840    0.144225    11.00000   -1.20000
AFIX   0
C3    1   -0.110406    0.243350    0.084074    11.00000    0.03279    0.03285 =
         0.05467   -0.00175   -0.00168   -0.00172
AFIX  43
H3    2   -0.192065    0.259578    0.119743    11.00000   -1.20000
AFIX   0
rem AFIX   0
C7    1    0.238332    0.337739    0.069377    11.00000    0.03947    0.02122 =
         0.03489    0.00345   -0.00157   -0.00198
C6    1    0.136495    0.190032   -0.022964    11.00000    0.03327    0.02375 =
         0.04049    0.00406   -0.00141   -0.00412
rem AFIX  66
C8    1    0.224713    0.432191    0.140914    11.00000    0.03499    0.02252 =
         0.04592    0.00431   -0.00165    0.00043
C9    1    0.292260    0.443052    0.243868    11.00000    0.04940    0.02678 =
         0.04968    0.00063   -0.01164    0.00614
AFIX  43
H9    2    0.345219    0.389865    0.269458    11.00000   -1.20000
AFIX   0
C10   1    0.283412    0.530919    0.310164    11.00000    0.06594    0.03740 =
         0.05013   -0.00493   -0.00914    0.00613
AFIX  43
H10   2    0.332440    0.538230    0.377858    11.00000   -1.20000
AFIX   0
C11   1    0.200028    0.607803    0.273664    11.00000    0.05305    0.03209 =
         0.04555   -0.01134    0.00090    0.00060
AFIX  43
H11   2    0.189870    0.666064    0.319363    11.00000   -1.20000
AFIX   0
C12   1    0.132272    0.599412    0.171326    11.00000    0.05514    0.02728 =
         0.04421    0.00198   -0.00002    0.00387
AFIX  43
H12   2    0.078594    0.652479    0.146561    11.00000   -1.20000
AFIX   0
C13   1    0.143993    0.511781    0.105027    11.00000    0.03968    0.02344 =
         0.05228   -0.00596   -0.00983    0.00161
AFIX  43
H13   2    0.097509    0.505886    0.035735    11.00000   -1.20000
rem AFIX   0
REM #####
AFIX   0
HKLF 4

REM  sad in C2/c
REM R1 =  0.0528 for     308 Fo > 4sig(Fo)  and  0.0816 for all     422 data
REM    119 parameters refined using    128 restraints

END

WGHT      0.1050      0.8553

REM Highest difference peak  0.122,  deepest hole -0.159,  1-sigma level  0.043
Q1    1   0.1266  0.4348  0.2332  11.00000  0.05    0.12
Q2    1   0.0935  0.0861 -0.1706  11.00000  0.05    0.12
Q3    1  -0.0592  0.3546  0.2368  11.00000  0.05    0.12
Q4    1  -0.0379  0.2787 -0.0454  11.00000  0.05    0.11
Q5    1  -0.0962  0.3336  0.1996  11.00000  0.05    0.11
Q6    1  -0.1369  0.3299 -0.0554  11.00000  0.05    0.11
Q7    1  -0.0677  0.2887  0.1821  11.00000  0.05    0.11
Q8    1   0.0937  0.2432  0.1173  11.00000  0.05    0.10
Q9    1   0.1272  0.6060  0.3815  11.00000  0.05    0.10
Q10   1   0.0577  0.1882  0.0172  11.00000  0.05    0.10
;
_shelx_res_checksum              68279
loop_
_space_group_symop_operation_xyz
'x, y, z'
'-x, y, -z+1/2'
'x+1/2, y+1/2, z'
'-x+1/2, y+1/2, -z+1/2'
'-x, -y, -z'
'x, -y, z-1/2'
'-x+1/2, -y+1/2, -z'
'x+1/2, -y+1/2, z-1/2'
loop_
_atom_site_label
_atom_site_type_symbol
_atom_site_fract_x
_atom_site_fract_y
_atom_site_fract_z
_atom_site_U_iso_or_equiv
_atom_site_adp_type
_atom_site_occupancy
_atom_site_site_symmetry_order
_atom_site_calc_flag
_atom_site_refinement_flags_posn
_atom_site_refinement_flags_adp
C1 C 0.0200(6) 0.1301(4) -0.0379(6) 0.035(2) Uani 1 1 d D U
H1 H 0.0252 0.0718 -0.0841 0.042 Uiso 1 1 calc R U
C2 C -0.0970(7) 0.1559(4) 0.0132(6) 0.042(3) Uani 1 1 d D U
H2 H -0.1711 0.1151 0.0015 0.050 Uiso 1 1 calc R U
C5 C 0.1236(6) 0.2791(4) 0.0496(6) 0.032(2) Uani 1 1 d D U
C4 C -0.0035(7) 0.3030(4) 0.0995(6) 0.033(2) Uani 1 1 d D U
H4 H -0.0132 0.3618 0.1442 0.039 Uiso 1 1 calc R U
C3 C -0.1104(8) 0.2434(4) 0.0841(6) 0.040(2) Uani 1 1 d D U
H3 H -0.1921 0.2596 0.1197 0.048 Uiso 1 1 calc R U
C7 C 0.2383(7) 0.3377(4) 0.0694(6) 0.032(2) Uani 1 1 d D U
C6 C 0.1365(7) 0.1900(4) -0.0230(6) 0.032(2) Uani 1 1 d D U
C8 C 0.2247(7) 0.4322(4) 0.1409(6) 0.034(2) Uani 1 1 d D U
C9 C 0.2923(7) 0.4431(4) 0.2439(6) 0.042(2) Uani 1 1 d D U
H9 H 0.3452 0.3899 0.2695 0.050 Uiso 1 1 calc R U
C10 C 0.2834(7) 0.5309(4) 0.3102(6) 0.051(2) Uani 1 1 d D U
H10 H 0.3324 0.5382 0.3779 0.061 Uiso 1 1 calc R U
C11 C 0.2000(8) 0.6078(5) 0.2737(6) 0.044(3) Uani 1 1 d D U
H11 H 0.1899 0.6661 0.3194 0.052 Uiso 1 1 calc R U
C12 C 0.1323(7) 0.5994(4) 0.1713(6) 0.042(3) Uani 1 1 d D U
H12 H 0.0786 0.6525 0.1466 0.051 Uiso 1 1 calc R U
C13 C 0.1440(6) 0.5118(4) 0.1050(5) 0.038(2) Uani 1 1 d D U
H13 H 0.0975 0.5059 0.0357 0.046 Uiso 1 1 calc R U
loop_
_atom_site_aniso_label
_atom_site_aniso_U_11
_atom_site_aniso_U_22
_atom_site_aniso_U_33
_atom_site_aniso_U_23
_atom_site_aniso_U_13
_atom_site_aniso_U_12
C1 0.041(5) 0.021(4) 0.042(6) 0.001(3) -0.003(4) -0.001(3)
C2 0.034(5) 0.034(4) 0.057(6) -0.004(3) -0.003(5) -0.007(3)
C5 0.034(5) 0.020(4) 0.041(5) 0.004(3) -0.003(4) 0.002(3)
C4 0.038(5) 0.021(4) 0.041(5) 0.000(3) -0.004(4) -0.003(3)
C3 0.033(5) 0.033(4) 0.055(6) -0.002(3) -0.002(4) -0.002(3)
C7 0.039(5) 0.021(3) 0.035(5) 0.003(3) -0.002(4) -0.002(3)
C6 0.033(5) 0.024(4) 0.040(5) 0.004(3) -0.001(4) -0.004(3)
C8 0.035(5) 0.023(3) 0.046(5) 0.004(3) -0.002(4) 0.000(3)
C9 0.049(6) 0.027(4) 0.050(5) 0.001(3) -0.012(4) 0.006(3)
C10 0.066(7) 0.037(4) 0.050(5) -0.005(3) -0.009(5) 0.006(3)
C11 0.053(6) 0.032(4) 0.046(6) -0.011(3) 0.001(4) 0.001(3)
C12 0.055(7) 0.027(4) 0.044(5) 0.002(3) 0.000(5) 0.004(3)
C13 0.040(6) 0.023(4) 0.052(5) -0.006(3) -0.010(4) 0.002(3)
loop_
_atom_type_symbol
_atom_type_description
_atom_type_scat_dispersion_real
_atom_type_scat_dispersion_imag
_atom_type_scat_source
C C 0.0033 0.0016 'International Tables Vol C Tables 4.2.6.8 and 6.1.1.4'
H H 0.0000 0.0000 'International Tables Vol C Tables 4.2.6.8 and 6.1.1.4'
loop_
_geom_angle_atom_site_label_1
_geom_angle_atom_site_label_2
_geom_angle_atom_site_label_3
_geom_angle
_geom_angle_site_symmetry_1
C2 C1 C6 121.4(5) .
C1 C2 C3 121.6(6) .
C7 C5 C4 123.0(5) .
C7 C5 C6 118.5(5) .
C4 C5 C6 118.5(5) .
C3 C4 C5 122.1(5) .
C4 C3 C2 119.1(6) .
C6 C7 C5 121.8(5) 7
C6 C7 C8 119.5(6) 7
C5 C7 C8 118.7(5) .
C7 C6 C1 122.9(5) 7
C7 C6 C5 119.7(5) 7
C1 C6 C5 117.2(5) .
C9 C8 C13 118.4(5) .
C9 C8 C7 120.8(5) .
C13 C8 C7 120.8(7) .
C8 C9 C10 121.7(6) .
C9 C10 C11 118.6(7) .
C12 C11 C10 121.0(6) .
C11 C12 C13 119.7(6) .
C12 C13 C8 120.6(6) .
loop_
_geom_bond_atom_site_label_1
_geom_bond_atom_site_label_2
_geom_bond_distance
_geom_bond_site_symmetry_2
C1 C2 1.340(7) .
C1 C6 1.424(8) .
C2 C3 1.409(7) .
C5 C7 1.409(7) .
C5 C4 1.418(7) .
C5 C6 1.436(7) .
C4 C3 1.345(8) .
C7 C6 1.399(8) 7
C7 C8 1.489(7) .
C6 C7 1.399(8) 7
C8 C9 1.376(7) .
C8 C13 1.392(7) .
C9 C10 1.381(7) .
C10 C11 1.383(9) .
C11 C12 1.368(9) .
C12 C13 1.381(6) .
