#------------------------------------------------------------------------------
#$Date: 2016-04-05 18:24:29 +0300 (Tue, 05 Apr 2016) $
#$Revision: 181604 $
#$URL: svn://www.crystallography.net/cod/cif/7/22/42/7224293.cif $
#------------------------------------------------------------------------------
#
# This file is available in the Crystallography Open Database (COD),
# http://www.crystallography.net/
#
# All data on this site have been placed in the public domain by the
# contributors.
#
data_7224293
loop_
_publ_author_name
'Li, Ye-Xin'
'Yang, Xiao-Feng'
'Miao, Jin-Ling'
'Zhang, Zhen-Wei'
'Sun, Guo-Xin'
_publ_section_title
;
 Effects of substitution position on crystal packing, polymorphism and
 crystallization-induced emission of (9-anthryl)vinylstyrylbenzene isomers
;
_journal_issue                   12
_journal_name_full               CrystEngComm
_journal_page_first              2098
_journal_paper_doi               10.1039/C5CE02406D
_journal_volume                  18
_journal_year                    2016
_chemical_formula_moiety         'C30 H22'
_chemical_formula_sum            'C30 H22'
_chemical_formula_weight         382.48
_chemical_name_systematic
;
 ? 
;
_space_group_crystal_system      triclinic
_space_group_IT_number           2
_space_group_name_Hall           '-P 1'
_space_group_name_H-M_alt        'P -1'
_symmetry_space_group_name_Hall  '-P 1'
_symmetry_space_group_name_H-M   'P -1'
_atom_sites_solution_hydrogens   geom
_atom_sites_solution_primary     direct
_atom_sites_solution_secondary   difmap
_audit_creation_date             2016-01-13
_audit_creation_method
;
Olex2 1.2
(compiled 2015.09.30 svn.r3233 for OlexSys, GUI svn.r5103)
;
_audit_update_record
;
2016-01-22 deposited with the CCDC.
2016-02-17 downloaded from the CCDC.
;
_cell_angle_alpha                89.902(12)
_cell_angle_beta                 81.207(12)
_cell_angle_gamma                76.231(16)
_cell_formula_units_Z            4
_cell_length_a                   9.3498(16)
_cell_length_b                   9.4481(18)
_cell_length_c                   24.396(2)
_cell_measurement_reflns_used    1670
_cell_measurement_temperature    293(2)
_cell_measurement_theta_max      70.3470
_cell_measurement_theta_min      3.6470
_cell_volume                     2067.2(6)
_computing_cell_refinement
;
CrysAlisPro, Agilent Technologies,
Version 1.171.37.35 (release 13-08-2014 CrysAlis171 .NET)
(compiled Aug 13 2014,18:06:01)
;
_computing_data_collection
;
CrysAlisPro, Agilent Technologies,
Version 1.171.37.35 (release 13-08-2014 CrysAlis171 .NET)
(compiled Aug 13 2014,18:06:01)
;
_computing_data_reduction
;
CrysAlisPro, Agilent Technologies,
Version 1.171.37.35 (release 13-08-2014 CrysAlis171 .NET)
(compiled Aug 13 2014,18:06:01)
;
_computing_molecular_graphics    'Olex2 (Dolomanov et al., 2009)'
_computing_publication_material  'Olex2 (Dolomanov et al., 2009)'
_computing_structure_refinement  'ShelXL (Sheldrick, 2015)'
_computing_structure_solution    'SIR2004 (Burla et al., 2007)'
_diffrn_ambient_temperature      293.15
_diffrn_detector                 'CCD plate'
_diffrn_detector_area_resol_mean 16.0355
_diffrn_detector_type            Eos
_diffrn_measured_fraction_theta_full 0.866
_diffrn_measured_fraction_theta_max 0.866
_diffrn_measurement_details
;
  1 omega -101.00  -17.00   1.0000   10.0000
omega____ theta____ kappa____ phi______ frames
    -      -33.5000  -57.0000 -120.0000 84

  2 omega   -4.00   74.00   1.0000   10.0000
omega____ theta____ kappa____ phi______ frames
    -       35.3677  -99.0000   30.0000 78

  3 omega  -32.00   62.00   1.0000   10.0000
omega____ theta____ kappa____ phi______ frames
    -       35.3677  -77.0000   90.0000 94

  4 omega   18.00   89.00   1.0000   10.0000
omega____ theta____ kappa____ phi______ frames
    -       35.3677 -125.0000  -90.0000 71

  5 omega   19.00  103.00   1.0000   10.0000
omega____ theta____ kappa____ phi______ frames
    -       35.3677   57.0000  -30.0000 84

  6 omega  -32.00   52.00   1.0000   10.0000
omega____ theta____ kappa____ phi______ frames
    -       35.3677  -57.0000  -90.0000 84

  7 omega  -32.00   52.00   1.0000   10.0000
omega____ theta____ kappa____ phi______ frames
    -       35.3677  -57.0000  120.0000 84

  8 omega  -36.00   65.00   1.0000   10.0000
omega____ theta____ kappa____ phi______ frames
    -       35.3677  -19.0000  150.0000 101

  9 omega   38.00   91.00   1.0000   60.0000
omega____ theta____ kappa____ phi______ frames
    -      108.0000  -30.0000   60.0000 53

 10 omega   91.00  176.00   1.0000   60.0000
omega____ theta____ kappa____ phi______ frames
    -      108.0000   45.0000   30.0000 85

 11 omega   40.00   98.00   1.0000   60.0000
omega____ theta____ kappa____ phi______ frames
    -      108.0000  -45.0000  -90.0000 58

 12 omega   40.00   98.00   1.0000   60.0000
omega____ theta____ kappa____ phi______ frames
    -      108.0000  -45.0000   30.0000 58

 13 omega   38.00   91.00   1.0000   60.0000
omega____ theta____ kappa____ phi______ frames
    -      108.0000  -30.0000  150.0000 53

 14 omega   40.00  135.00   1.0000   60.0000
omega____ theta____ kappa____ phi______ frames
    -      108.0000  -77.0000   30.0000 95

 15 omega   39.00  109.00   1.0000   60.0000
omega____ theta____ kappa____ phi______ frames
    -      108.0000  -94.0000 -120.0000 70

 16 omega   38.00   91.00   1.0000   60.0000
omega____ theta____ kappa____ phi______ frames
    -      108.0000  -30.0000    0.0000 53

 17 omega   39.00  109.00   1.0000   60.0000
omega____ theta____ kappa____ phi______ frames
    -      108.0000  -94.0000  150.0000 70

 18 omega   38.00   63.00   1.0000   60.0000
omega____ theta____ kappa____ phi______ frames
    -      108.0000 -111.0000    0.0000 25
;
_diffrn_measurement_device       'four-circle diffractometer'
_diffrn_measurement_device_type  'Xcalibur, Eos, Gemini'
_diffrn_measurement_method       '\w scans'
_diffrn_orient_matrix_UB_11      0.0008676000
_diffrn_orient_matrix_UB_12      0.0702569000
_diffrn_orient_matrix_UB_13      0.0568497000
_diffrn_orient_matrix_UB_21      -0.0953914000
_diffrn_orient_matrix_UB_22      0.1449264000
_diffrn_orient_matrix_UB_23      -0.0170413000
_diffrn_orient_matrix_UB_31      -0.1428505000
_diffrn_orient_matrix_UB_32      -0.0477538000
_diffrn_orient_matrix_UB_33      0.0237946000
_diffrn_radiation_monochromator  graphite
_diffrn_radiation_probe          x-ray
_diffrn_radiation_type           CuK\a
_diffrn_radiation_wavelength     1.54184
_diffrn_reflns_av_R_equivalents  0.0460
_diffrn_reflns_av_unetI/netI     0.0701
_diffrn_reflns_limit_h_max       5
_diffrn_reflns_limit_h_min       -10
_diffrn_reflns_limit_k_max       8
_diffrn_reflns_limit_k_min       -10
_diffrn_reflns_limit_l_max       27
_diffrn_reflns_limit_l_min       -25
_diffrn_reflns_number            9472
_diffrn_reflns_theta_full        58.92
_diffrn_reflns_theta_max         58.92
_diffrn_reflns_theta_min         4.82
_diffrn_source                   'Enhance (Cu) X-ray Source'
_exptl_absorpt_coefficient_mu    0.525
_exptl_absorpt_correction_T_max  1.00000
_exptl_absorpt_correction_T_min  0.58733
_exptl_absorpt_correction_type   multi-scan
_exptl_absorpt_process_details
;
CrysAlisPro, Agilent Technologies,
Version 1.171.37.35 (release 13-08-2014 CrysAlis171 .NET)
(compiled Aug 13 2014,18:06:01)
Empirical absorption correction using spherical harmonics,
 implemented in SCALE3 ABSPACK scaling algorithm.
;
_exptl_crystal_colour            yellow
_exptl_crystal_density_diffrn    1.229
_exptl_crystal_density_method    'not measured'
_exptl_crystal_F_000             808
_exptl_crystal_size_max          0.36
_exptl_crystal_size_mid          0.18
_exptl_crystal_size_min          0.14
_refine_diff_density_max         0.413
_refine_diff_density_min         -0.248
_refine_diff_density_rms         0.065
_refine_ls_extinction_method     none
_refine_ls_goodness_of_fit_ref   1.027
_refine_ls_hydrogen_treatment    constr
_refine_ls_matrix_type           full
_refine_ls_number_parameters     541
_refine_ls_number_reflns         5152
_refine_ls_number_restraints     5
_refine_ls_restrained_S_all      1.027
_refine_ls_R_factor_all          0.1684
_refine_ls_R_factor_gt           0.1011
_refine_ls_shift/su_max          0.000
_refine_ls_shift/su_mean         0.000
_refine_ls_structure_factor_coef Fsqd
_refine_ls_weighting_details
'calc w=1/[\s^2^(Fo^2^)+(0.1386P)^2^+0.8976P] where P=(Fo^2^+2Fc^2^)/3'
_refine_ls_weighting_scheme      calc
_refine_ls_wR_factor_gt          0.2633
_refine_ls_wR_factor_ref         0.3295
_reflns_number_gt                2353
_reflns_number_total             5152
_reflns_threshold_expression     >2sigma(I)
_cod_data_source_file            c5ce02406d2.cif
_cod_data_source_block           150923_lyx_lfz_14
_cod_depositor_comments
'Adding full bibliography for 7224291--7224293.cif.'
_cod_database_code               7224293
_chemical_oxdiff_formula         'C H'
_reflns_odcompleteness_completeness 83.89
_reflns_odcompleteness_iscentric 1
_reflns_odcompleteness_theta     66.97
_olex2_refinement_description
;
1. Fixed Uiso
 At 1.2 times of:
  All C(H) groups
2. Restrained distances
 C15-C14
 1.48 with sigma of 0.02
 C16-C15
 1.2 with sigma of 0.02
 C15-C14
 1.45 with sigma of 0.02
 C17-C16
 1.46 with sigma of 0.02
 C15-C16
 1.21 with sigma of 0.02
3.a Aromatic/amide H refined with riding coordinates:
 C2(H2), C3(H3), C4(H4), C5(H5), C7(H7), C9(H9), C10(H10), C11(H11), C12(H12),
 C15(H15), C16(H16), C18(H18), C19(H19), C21(H21), C22(H22), C23(H23), C24(H24),
  C26(H26), C27(H27), C28(H28), C29(H29), C30(H30), C32(H32), C33(H33),
 C34(H34), C35(H35), C37(H37), C39(H39), C40(H40), C41(H41), C42(H42), C45(H45),
  C46(H46), C48(H48), C49(H49), C51(H51), C52(H52), C53(H53), C54(H54),
 C56(H56), C57(H57), C58(H58), C59(H59), C60(H60)
;
_olex2_date_sample_data_collection 2015-09-21
_olex2_submission_special_instructions 'No special instructions were received'
loop_
_space_group_symop_id
_space_group_symop_operation_xyz
1 'x, y, z'
2 '-x, -y, -z'
loop_
_atom_site_label
_atom_site_type_symbol
_atom_site_fract_x
_atom_site_fract_y
_atom_site_fract_z
_atom_site_U_iso_or_equiv
_atom_site_adp_type
_atom_site_occupancy
_atom_site_calc_flag
_atom_site_refinement_flags_posn
C1 C 0.7384(7) 0.4174(8) 0.1418(2) 0.0745(18) Uani 1 d .
C2 C 0.6232(8) 0.3457(10) 0.1606(3) 0.101(3) Uani 1 d .
H2 H 0.6134 0.3155 0.1970 0.121 Uiso 1 calc R
C3 C 0.5278(8) 0.3197(10) 0.1280(3) 0.102(3) Uani 1 d .
H3 H 0.4576 0.2676 0.1411 0.122 Uiso 1 calc R
C4 C 0.5354(8) 0.3727(9) 0.0733(3) 0.097(2) Uani 1 d .
H4 H 0.4667 0.3594 0.0511 0.116 Uiso 1 calc R
C5 C 0.6414(7) 0.4417(8) 0.0534(3) 0.083(2) Uani 1 d .
H5 H 0.6463 0.4736 0.0172 0.100 Uiso 1 calc R
C6 C 0.7463(7) 0.4670(7) 0.0864(2) 0.0731(18) Uani 1 d .
C7 C 0.8543(7) 0.5401(7) 0.0663(2) 0.0743(18) Uani 1 d .
H7 H 0.8578 0.5730 0.0303 0.089 Uiso 1 calc R
C8 C 0.9581(6) 0.5665(7) 0.0981(2) 0.0655(16) Uani 1 d .
C9 C 1.0703(8) 0.6386(8) 0.0767(3) 0.084(2) Uani 1 d .
H9 H 1.0726 0.6736 0.0410 0.101 Uiso 1 calc R
C10 C 1.1732(8) 0.6573(9) 0.1069(3) 0.092(2) Uani 1 d .
H10 H 1.2457 0.7054 0.0922 0.110 Uiso 1 calc R
C11 C 1.1711(8) 0.6026(9) 0.1621(3) 0.094(2) Uani 1 d .
H11 H 1.2433 0.6145 0.1828 0.113 Uiso 1 calc R
C12 C 1.0666(7) 0.5352(9) 0.1837(3) 0.088(2) Uani 1 d .
H12 H 1.0678 0.5004 0.2194 0.106 Uiso 1 calc R
C13 C 0.9532(7) 0.5150(7) 0.1537(2) 0.0712(17) Uani 1 d .
C14 C 0.8403(7) 0.4414(8) 0.1751(2) 0.080(2) Uani 1 d D
C15 C 0.8346(8) 0.3799(10) 0.2315(3) 0.106(3) Uani 1 d D
H15 H 0.8647 0.2787 0.2312 0.127 Uiso 1 calc R
C16 C 0.7989(7) 0.4356(9) 0.2770(2) 0.090(2) Uani 1 d D
H16 H 0.7703 0.5369 0.2770 0.108 Uiso 1 calc R
C17 C 0.7908(6) 0.3767(7) 0.3331(2) 0.0657(16) Uani 1 d D
C18 C 0.8455(6) 0.2292(7) 0.3448(2) 0.0691(16) Uani 1 d .
H18 H 0.8901 0.1621 0.3157 0.083 Uiso 1 calc R
C19 C 0.8343(6) 0.1826(7) 0.3982(2) 0.0664(15) Uani 1 d .
H19 H 0.8708 0.0845 0.4045 0.080 Uiso 1 calc R
C20 C 0.7694(6) 0.2790(7) 0.4433(2) 0.0633(15) Uani 1 d .
C21 C 0.7165(7) 0.4236(7) 0.4314(2) 0.0738(17) Uani 1 d .
H21 H 0.6728 0.4911 0.4604 0.089 Uiso 1 calc R
C22 C 0.7269(7) 0.4701(7) 0.3777(2) 0.0719(17) Uani 1 d .
H22 H 0.6892 0.5682 0.3716 0.086 Uiso 1 calc R
C23 C 0.7644(7) 0.2166(9) 0.4994(3) 0.087(2) Uani 1 d .
H23 H 0.8048 0.1168 0.5003 0.105 Uiso 1 calc R
C24 C 0.7135(8) 0.2803(9) 0.5452(3) 0.089(2) Uani 1 d .
H24 H 0.6728 0.3800 0.5442 0.107 Uiso 1 calc R
C25 C 0.7087(7) 0.2189(8) 0.6014(3) 0.0725(18) Uani 1 d .
C26 C 0.7650(7) 0.0744(8) 0.6137(3) 0.0766(18) Uani 1 d .
H26 H 0.8126 0.0069 0.5850 0.092 Uiso 1 calc R
C27 C 0.7513(7) 0.0290(8) 0.6680(3) 0.0782(18) Uani 1 d .
H27 H 0.7891 -0.0681 0.6756 0.094 Uiso 1 calc R
C28 C 0.6813(7) 0.1290(8) 0.7107(3) 0.0758(18) Uani 1 d .
H28 H 0.6709 0.0997 0.7472 0.091 Uiso 1 calc R
C29 C 0.6275(7) 0.2709(8) 0.6989(3) 0.0824(19) Uani 1 d .
H29 H 0.5808 0.3385 0.7276 0.099 Uiso 1 calc R
C30 C 0.6415(7) 0.3150(7) 0.6452(3) 0.0761(18) Uani 1 d .
H30 H 0.6045 0.4126 0.6383 0.091 Uiso 1 calc R
C31 C 0.0350(6) -0.0147(6) 0.8495(2) 0.0629(15) Uani 1 d .
C32 C -0.0799(7) -0.0419(7) 0.8220(3) 0.0760(18) Uani 1 d .
H32 H -0.0858 -0.0086 0.7863 0.091 Uiso 1 calc R
C33 C -0.1804(8) -0.1139(9) 0.8454(3) 0.090(2) Uani 1 d .
H33 H -0.2530 -0.1306 0.8259 0.108 Uiso 1 calc R
C34 C -0.1751(8) -0.1643(8) 0.9004(3) 0.092(2) Uani 1 d .
H34 H -0.2461 -0.2117 0.9170 0.110 Uiso 1 calc R
C35 C -0.0678(8) -0.1435(8) 0.9282(3) 0.083(2) Uani 1 d .
H35 H -0.0645 -0.1793 0.9636 0.100 Uiso 1 calc R
C36 C 0.0412(7) -0.0677(7) 0.9048(2) 0.0699(17) Uani 1 d .
C37 C 0.1491(7) -0.0440(7) 0.9338(2) 0.0737(18) Uani 1 d .
H37 H 0.1515 -0.0783 0.9695 0.088 Uiso 1 calc R
C38 C 0.2548(6) 0.0304(7) 0.9108(2) 0.0692(17) Uani 1 d .
C39 C 0.3652(7) 0.0547(8) 0.9415(3) 0.084(2) Uani 1 d .
H39 H 0.3673 0.0192 0.9771 0.101 Uiso 1 calc R
C40 C 0.4673(7) 0.1287(9) 0.9199(3) 0.091(2) Uani 1 d .
H40 H 0.5403 0.1413 0.9401 0.109 Uiso 1 calc R
C41 C 0.4622(7) 0.1868(8) 0.8664(3) 0.084(2) Uani 1 d .
H41 H 0.5294 0.2410 0.8522 0.101 Uiso 1 calc R
C42 C 0.3590(7) 0.1633(7) 0.8357(2) 0.0744(17) Uani 1 d .
H42 H 0.3579 0.2014 0.8006 0.089 Uiso 1 calc R
C43 C 0.2531(6) 0.0821(7) 0.8560(2) 0.0657(16) Uani 1 d .
C44 C 0.1441(6) 0.0581(7) 0.8256(2) 0.0621(15) Uani 1 d .
C45 C 0.1346(7) 0.1094(7) 0.7682(2) 0.0696(17) Uani 1 d .
H45 H 0.0414 0.1617 0.7618 0.084 Uiso 1 calc R
C46 C 0.2413(6) 0.0898(7) 0.7261(2) 0.0678(16) Uani 1 d .
H46 H 0.3355 0.0405 0.7326 0.081 Uiso 1 calc R
C47 C 0.2285(6) 0.1374(6) 0.6692(2) 0.0606(14) Uani 1 d .
C48 C 0.3550(6) 0.1071(6) 0.6295(2) 0.0647(15) Uani 1 d .
H48 H 0.4459 0.0610 0.6399 0.078 Uiso 1 calc R
C49 C 0.3501(6) 0.1438(7) 0.5747(2) 0.0670(16) Uani 1 d .
H49 H 0.4374 0.1212 0.5491 0.080 Uiso 1 calc R
C50 C 0.2180(6) 0.2131(7) 0.5575(2) 0.0619(15) Uani 1 d .
C51 C 0.0903(6) 0.2430(7) 0.5967(2) 0.0674(16) Uani 1 d .
H51 H -0.0004 0.2888 0.5862 0.081 Uiso 1 calc R
C52 C 0.0955(7) 0.2059(7) 0.6513(2) 0.0680(16) Uani 1 d .
H52 H 0.0078 0.2273 0.6768 0.082 Uiso 1 calc R
C53 C 0.2055(7) 0.2586(7) 0.4999(2) 0.0722(17) Uani 1 d .
H53 H 0.1097 0.2939 0.4917 0.087 Uiso 1 calc R
C54 C 0.3153(7) 0.2539(7) 0.4595(2) 0.0708(17) Uani 1 d .
H54 H 0.4107 0.2203 0.4682 0.085 Uiso 1 calc R
C55 C 0.3065(7) 0.2955(6) 0.4018(2) 0.0625(15) Uani 1 d .
C56 C 0.4365(6) 0.2643(7) 0.3642(2) 0.0711(17) Uani 1 d .
H56 H 0.5262 0.2225 0.3763 0.085 Uiso 1 calc R
C57 C 0.4357(7) 0.2938(8) 0.3094(3) 0.0788(19) Uani 1 d .
H57 H 0.5251 0.2704 0.2849 0.095 Uiso 1 calc R
C58 C 0.3075(7) 0.3566(8) 0.2897(2) 0.0792(19) Uani 1 d .
H58 H 0.3093 0.3763 0.2522 0.095 Uiso 1 calc R
C59 C 0.1753(7) 0.3904(7) 0.3260(3) 0.0775(19) Uani 1 d .
H59 H 0.0868 0.4325 0.3131 0.093 Uiso 1 calc R
C60 C 0.1740(7) 0.3619(7) 0.3818(2) 0.0733(17) Uani 1 d .
H60 H 0.0846 0.3869 0.4062 0.088 Uiso 1 calc R
loop_
_atom_site_aniso_label
_atom_site_aniso_U_11
_atom_site_aniso_U_22
_atom_site_aniso_U_33
_atom_site_aniso_U_23
_atom_site_aniso_U_13
_atom_site_aniso_U_12
C1 0.067(4) 0.096(5) 0.050(4) 0.012(3) -0.004(3) -0.001(3)
C2 0.093(5) 0.145(8) 0.064(5) 0.027(5) -0.004(4) -0.032(5)
C3 0.077(5) 0.148(8) 0.081(5) 0.024(5) -0.006(4) -0.033(5)
C4 0.082(5) 0.128(7) 0.080(5) 0.013(5) -0.023(4) -0.018(5)
C5 0.083(5) 0.114(6) 0.056(4) 0.017(4) -0.017(3) -0.026(4)
C6 0.073(4) 0.085(4) 0.051(4) 0.012(3) -0.008(3) -0.002(3)
C7 0.084(4) 0.084(4) 0.049(3) 0.018(3) -0.009(3) -0.009(4)
C8 0.067(4) 0.072(4) 0.050(3) 0.011(3) -0.001(3) -0.006(3)
C9 0.100(5) 0.087(5) 0.058(4) 0.015(4) -0.012(4) -0.011(4)
C10 0.088(5) 0.108(6) 0.078(5) 0.010(4) -0.006(4) -0.027(4)
C11 0.079(5) 0.129(7) 0.070(5) 0.001(4) -0.017(4) -0.014(4)
C12 0.073(4) 0.133(7) 0.053(4) 0.010(4) -0.012(3) -0.012(4)
C13 0.069(4) 0.089(4) 0.045(3) 0.009(3) -0.007(3) 0.000(3)
C14 0.076(4) 0.109(5) 0.048(4) 0.022(4) -0.004(3) -0.011(4)
C15 0.090(5) 0.164(8) 0.056(4) 0.028(5) -0.007(4) -0.019(5)
C16 0.086(5) 0.136(7) 0.051(4) 0.016(4) -0.015(3) -0.030(4)
C17 0.063(3) 0.094(5) 0.049(3) 0.017(3) -0.018(3) -0.031(3)
C18 0.058(3) 0.092(5) 0.054(4) -0.008(3) -0.003(3) -0.014(3)
C19 0.068(4) 0.069(4) 0.065(4) 0.010(3) -0.015(3) -0.018(3)
C20 0.071(4) 0.083(4) 0.047(3) 0.017(3) -0.018(3) -0.035(3)
C21 0.082(4) 0.085(5) 0.053(4) -0.012(3) -0.002(3) -0.022(4)
C22 0.078(4) 0.073(4) 0.065(4) 0.016(3) -0.016(3) -0.016(3)
C23 0.090(5) 0.123(6) 0.054(4) 0.001(4) -0.016(3) -0.032(4)
C24 0.089(5) 0.116(6) 0.070(5) 0.010(4) -0.017(4) -0.037(4)
C25 0.068(4) 0.106(5) 0.058(4) 0.028(4) -0.026(3) -0.038(4)
C26 0.064(4) 0.105(5) 0.060(4) -0.005(4) -0.003(3) -0.023(4)
C27 0.074(4) 0.088(5) 0.077(5) 0.021(4) -0.021(3) -0.023(3)
C28 0.079(4) 0.101(5) 0.049(3) 0.015(4) -0.009(3) -0.026(4)
C29 0.089(5) 0.096(5) 0.058(4) -0.002(4) -0.008(3) -0.017(4)
C30 0.085(4) 0.077(4) 0.066(4) 0.015(4) -0.015(3) -0.019(3)
C31 0.069(4) 0.064(3) 0.048(3) 0.004(3) -0.007(3) -0.004(3)
C32 0.076(4) 0.087(4) 0.064(4) 0.010(4) -0.011(3) -0.017(4)
C33 0.087(5) 0.116(6) 0.073(5) 0.012(4) -0.020(4) -0.032(4)
C34 0.081(5) 0.099(5) 0.094(5) 0.009(5) 0.003(4) -0.029(4)
C35 0.092(5) 0.095(5) 0.061(4) 0.024(4) -0.011(4) -0.018(4)
C36 0.079(4) 0.074(4) 0.050(3) 0.011(3) -0.001(3) -0.010(3)
C37 0.082(4) 0.088(5) 0.048(3) 0.020(3) -0.009(3) -0.015(4)
C38 0.065(4) 0.084(4) 0.051(3) 0.007(3) -0.005(3) -0.005(3)
C39 0.078(4) 0.115(6) 0.064(4) 0.017(4) -0.025(3) -0.022(4)
C40 0.078(5) 0.128(6) 0.066(4) -0.004(4) -0.025(3) -0.016(4)
C41 0.074(4) 0.112(6) 0.072(4) 0.004(4) -0.009(3) -0.032(4)
C42 0.087(4) 0.087(4) 0.047(3) 0.000(3) -0.008(3) -0.019(4)
C43 0.068(4) 0.078(4) 0.045(3) 0.003(3) -0.002(3) -0.012(3)
C44 0.061(3) 0.073(4) 0.047(3) 0.011(3) -0.004(3) -0.010(3)
C45 0.069(4) 0.086(4) 0.053(4) 0.009(3) -0.012(3) -0.013(3)
C46 0.068(4) 0.080(4) 0.056(4) 0.010(3) -0.016(3) -0.015(3)
C47 0.070(4) 0.069(4) 0.048(3) 0.004(3) -0.014(3) -0.024(3)
C48 0.062(3) 0.073(4) 0.062(4) 0.010(3) -0.016(3) -0.018(3)
C49 0.064(3) 0.085(4) 0.049(3) 0.002(3) 0.003(3) -0.020(3)
C50 0.064(3) 0.075(4) 0.050(3) 0.005(3) -0.012(3) -0.022(3)
C51 0.063(4) 0.085(4) 0.058(4) 0.016(3) -0.018(3) -0.019(3)
C52 0.070(4) 0.080(4) 0.054(3) 0.006(3) -0.002(3) -0.022(3)
C53 0.069(4) 0.097(5) 0.052(4) 0.008(3) -0.013(3) -0.022(3)
C54 0.072(4) 0.084(4) 0.058(4) 0.009(3) -0.017(3) -0.017(3)
C55 0.081(4) 0.064(3) 0.048(3) 0.006(3) -0.019(3) -0.023(3)
C56 0.063(4) 0.089(4) 0.064(4) 0.014(4) -0.010(3) -0.022(3)
C57 0.069(4) 0.098(5) 0.064(4) 0.013(4) -0.003(3) -0.016(4)
C58 0.088(5) 0.108(5) 0.047(3) 0.019(4) -0.011(3) -0.034(4)
C59 0.071(4) 0.099(5) 0.067(4) 0.029(4) -0.024(3) -0.021(3)
C60 0.072(4) 0.094(5) 0.056(4) 0.015(4) -0.008(3) -0.026(3)
loop_
_atom_type_symbol
_atom_type_description
_atom_type_scat_dispersion_real
_atom_type_scat_dispersion_imag
_atom_type_scat_source
C C 0.0181 0.0091 'International Tables Vol C Tables 4.2.6.8 and 6.1.1.4'
H H 0.0000 0.0000 'International Tables Vol C Tables 4.2.6.8 and 6.1.1.4'
loop_
_geom_angle_atom_site_label_1
_geom_angle_atom_site_label_2
_geom_angle_atom_site_label_3
_geom_angle
C2 C1 C6 116.9(6)
C14 C1 C2 123.1(6)
C14 C1 C6 120.0(6)
C1 C2 H2 118.6
C3 C2 C1 122.9(7)
C3 C2 H2 118.6
C2 C3 H3 120.3
C2 C3 C4 119.4(8)
C4 C3 H3 120.3
C3 C4 H4 119.8
C5 C4 C3 120.3(7)
C5 C4 H4 119.8
C4 C5 H5 119.3
C4 C5 C6 121.5(6)
C6 C5 H5 119.3
C5 C6 C1 119.0(6)
C7 C6 C1 119.3(6)
C7 C6 C5 121.7(6)
C6 C7 H7 118.7
C6 C7 C8 122.6(6)
C8 C7 H7 118.7
C7 C8 C9 122.1(6)
C7 C8 C13 118.7(6)
C9 C8 C13 119.1(6)
C8 C9 H9 119.3
C10 C9 C8 121.3(7)
C10 C9 H9 119.3
C9 C10 H10 120.1
C9 C10 C11 119.7(7)
C11 C10 H10 120.1
C10 C11 H11 119.7
C12 C11 C10 120.6(7)
C12 C11 H11 119.7
C11 C12 H12 119.1
C11 C12 C13 121.8(7)
C13 C12 H12 119.1
C12 C13 C8 117.4(6)
C12 C13 C14 123.5(6)
C14 C13 C8 119.0(6)
C1 C14 C13 120.3(6)
C1 C14 C15 118.4(6)
C13 C14 C15 121.2(6)
C14 C15 H15 113.8
C16 C15 C14 132.4(9)
C16 C15 H15 113.8
C15 C16 H16 113.4
C15 C16 C17 133.1(9)
C17 C16 H16 113.4
C18 C17 C16 124.7(6)
C22 C17 C16 118.8(6)
C22 C17 C18 116.5(5)
C17 C18 H18 119.3
C19 C18 C17 121.4(6)
C19 C18 H18 119.3
C18 C19 H19 119.2
C18 C19 C20 121.5(6)
C20 C19 H19 119.2
C19 C20 C23 116.9(6)
C21 C20 C19 116.7(5)
C21 C20 C23 126.4(6)
C20 C21 H21 119.1
C22 C21 C20 121.8(6)
C22 C21 H21 119.1
C17 C22 C21 122.2(6)
C17 C22 H22 118.9
C21 C22 H22 118.9
C20 C23 H23 115.7
C24 C23 C20 128.5(8)
C24 C23 H23 115.7
C23 C24 H24 115.6
C23 C24 C25 128.9(8)
C25 C24 H24 115.6
C26 C25 C24 126.3(7)
C30 C25 C24 116.4(7)
C30 C25 C26 117.3(6)
C25 C26 H26 119.4
C27 C26 C25 121.2(7)
C27 C26 H26 119.4
C26 C27 H27 120.2
C28 C27 C26 119.5(7)
C28 C27 H27 120.2
C27 C28 H28 120.2
C29 C28 C27 119.5(6)
C29 C28 H28 120.2
C28 C29 H29 119.6
C28 C29 C30 120.7(7)
C30 C29 H29 119.6
C25 C30 H30 119.1
C29 C30 C25 121.8(6)
C29 C30 H30 119.1
C32 C31 C36 117.4(6)
C44 C31 C32 124.0(6)
C44 C31 C36 118.6(6)
C31 C32 H32 118.7
C33 C32 C31 122.7(6)
C33 C32 H32 118.7
C32 C33 H33 120.1
C32 C33 C34 119.8(7)
C34 C33 H33 120.1
C33 C34 H34 119.9
C35 C34 C33 120.2(7)
C35 C34 H34 119.9
C34 C35 H35 119.1
C34 C35 C36 121.9(7)
C36 C35 H35 119.1
C35 C36 C31 118.0(6)
C37 C36 C31 120.2(6)
C37 C36 C35 121.7(6)
C36 C37 H37 119.3
C36 C37 C38 121.4(6)
C38 C37 H37 119.3
C37 C38 C39 120.7(6)
C37 C38 C43 119.8(6)
C39 C38 C43 119.5(6)
C38 C39 H39 119.4
C40 C39 C38 121.2(6)
C40 C39 H39 119.4
C39 C40 H40 120.1
C39 C40 C41 119.7(6)
C41 C40 H40 120.1
C40 C41 H41 119.9
C42 C41 C40 120.3(7)
C42 C41 H41 119.9
C41 C42 H42 119.1
C41 C42 C43 121.8(6)
C43 C42 H42 119.1
C42 C43 C38 117.3(6)
C44 C43 C38 119.6(6)
C44 C43 C42 123.0(5)
C31 C44 C45 116.9(5)
C43 C44 C31 120.4(5)
C43 C44 C45 122.8(5)
C44 C45 H45 116.2
C46 C45 C44 127.6(6)
C46 C45 H45 116.2
C45 C46 H46 116.6
C45 C46 C47 126.7(6)
C47 C46 H46 116.6
C48 C47 C46 118.7(5)
C48 C47 C52 116.7(6)
C52 C47 C46 124.6(6)
C47 C48 H48 119.1
C47 C48 C49 121.7(5)
C49 C48 H48 119.1
C48 C49 H49 119.4
C50 C49 C48 121.2(5)
C50 C49 H49 119.4
C49 C50 C51 117.7(6)
C49 C50 C53 123.9(5)
C51 C50 C53 118.4(5)
C50 C51 H51 119.5
C50 C51 C52 121.0(5)
C52 C51 H51 119.5
C47 C52 H52 119.1
C51 C52 C47 121.7(6)
C51 C52 H52 119.1
C50 C53 H53 116.7
C54 C53 C50 126.6(6)
C54 C53 H53 116.7
C53 C54 H54 116.1
C53 C54 C55 127.8(6)
C55 C54 H54 116.1
C56 C55 C54 117.8(6)
C56 C55 C60 117.5(6)
C60 C55 C54 124.7(6)
C55 C56 H56 119.5
C57 C56 C55 121.0(6)
C57 C56 H56 119.5
C56 C57 H57 119.1
C58 C57 C56 121.8(6)
C58 C57 H57 119.1
C57 C58 H58 120.5
C57 C58 C59 119.0(6)
C59 C58 H58 120.5
C58 C59 H59 120.0
C58 C59 C60 120.1(6)
C60 C59 H59 120.0
C55 C60 H60 119.7
C59 C60 C55 120.7(6)
C59 C60 H60 119.7
loop_
_geom_bond_atom_site_label_1
_geom_bond_atom_site_label_2
_geom_bond_distance
C1 C2 1.423(10)
C1 C6 1.428(8)
C1 C14 1.399(9)
C2 H2 0.9300
C2 C3 1.346(10)
C3 H3 0.9300
C3 C4 1.422(9)
C4 H4 0.9300
C4 C5 1.342(9)
C5 H5 0.9300
C5 C6 1.422(9)
C6 C7 1.384(9)
C7 H7 0.9300
C7 C8 1.396(8)
C8 C9 1.417(9)
C8 C13 1.439(8)
C9 H9 0.9300
C9 C10 1.341(9)
C10 H10 0.9300
C10 C11 1.441(9)
C11 H11 0.9300
C11 C12 1.333(10)
C12 H12 0.9300
C12 C13 1.426(9)
C13 C14 1.431(9)
C14 C15 1.492(7)
C15 H15 0.9300
C15 C16 1.193(8)
C16 H16 0.9300
C16 C17 1.475(8)
C17 C18 1.411(9)
C17 C22 1.369(8)
C18 H18 0.9300
C18 C19 1.372(7)
C19 H19 0.9300
C19 C20 1.393(8)
C20 C21 1.385(8)
C20 C23 1.488(8)
C21 H21 0.9300
C21 C22 1.377(8)
C22 H22 0.9300
C23 H23 0.9300
C23 C24 1.240(9)
C24 H24 0.9300
C24 C25 1.487(8)
C25 C26 1.392(9)
C25 C30 1.374(9)
C26 H26 0.9300
C26 C27 1.389(8)
C27 H27 0.9300
C27 C28 1.380(9)
C28 H28 0.9300
C28 C29 1.362(9)
C29 H29 0.9300
C29 C30 1.369(8)
C30 H30 0.9300
C31 C32 1.422(8)
C31 C36 1.443(8)
C31 C44 1.417(8)
C32 H32 0.9300
C32 C33 1.346(9)
C33 H33 0.9300
C33 C34 1.425(9)
C34 H34 0.9300
C34 C35 1.344(9)
C35 H35 0.9300
C35 C36 1.430(9)
C36 C37 1.376(8)
C37 H37 0.9300
C37 C38 1.395(8)
C38 C39 1.424(8)
C38 C43 1.424(8)
C39 H39 0.9300
C39 C40 1.356(9)
C40 H40 0.9300
C40 C41 1.419(9)
C41 H41 0.9300
C41 C42 1.365(8)
C42 H42 0.9300
C42 C43 1.423(8)
C43 C44 1.408(8)
C44 C45 1.488(7)
C45 H45 0.9300
C45 C46 1.297(8)
C46 H46 0.9300
C46 C47 1.473(7)
C47 C48 1.381(8)
C47 C52 1.392(8)
C48 H48 0.9300
C48 C49 1.386(7)
C49 H49 0.9300
C49 C50 1.379(8)
C50 C51 1.382(8)
C50 C53 1.483(8)
C51 H51 0.9300
C51 C52 1.383(7)
C52 H52 0.9300
C53 H53 0.9300
C53 C54 1.302(8)
C54 H54 0.9300
C54 C55 1.470(8)
C55 C56 1.376(8)
C55 C60 1.407(8)
C56 H56 0.9300
C56 C57 1.366(8)
C57 H57 0.9300
C57 C58 1.363(8)
C58 H58 0.9300
C58 C59 1.376(8)
C59 H59 0.9300
C59 C60 1.386(8)
C60 H60 0.9300
loop_
_geom_torsion_atom_site_label_1
_geom_torsion_atom_site_label_2
_geom_torsion_atom_site_label_3
_geom_torsion_atom_site_label_4
_geom_torsion
C1 C2 C3 C4 -3.7(14)
C1 C6 C7 C8 0.7(10)
C1 C14 C15 C16 -111.0(11)
C2 C1 C6 C5 -0.5(10)
C2 C1 C6 C7 178.7(6)
C2 C1 C14 C13 -179.7(7)
C2 C1 C14 C15 4.4(11)
C2 C3 C4 C5 3.2(13)
C3 C4 C5 C6 -1.5(12)
C4 C5 C6 C1 0.2(11)
C4 C5 C6 C7 -179.0(7)
C5 C6 C7 C8 179.8(6)
C6 C1 C2 C3 2.3(12)
C6 C1 C14 C13 -0.3(10)
C6 C1 C14 C15 -176.2(7)
C6 C7 C8 C9 178.5(6)
C6 C7 C8 C13 0.3(10)
C7 C8 C9 C10 -177.0(7)
C7 C8 C13 C12 176.0(6)
C7 C8 C13 C14 -1.4(9)
C8 C9 C10 C11 0.4(12)
C8 C13 C14 C1 1.4(10)
C8 C13 C14 C15 177.2(7)
C9 C8 C13 C12 -2.2(9)
C9 C8 C13 C14 -179.6(6)
C9 C10 C11 C12 -0.9(12)
C10 C11 C12 C13 -0.3(12)
C11 C12 C13 C8 1.8(11)
C11 C12 C13 C14 179.1(7)
C12 C13 C14 C1 -175.8(7)
C12 C13 C14 C15 0.0(11)
C13 C8 C9 C10 1.2(10)
C13 C14 C15 C16 73.1(12)
C14 C1 C2 C3 -178.3(8)
C14 C1 C6 C5 -179.9(6)
C14 C1 C6 C7 -0.7(10)
C14 C15 C16 C17 179.2(7)
C15 C16 C17 C18 8.4(13)
C15 C16 C17 C22 -172.0(8)
C16 C17 C18 C19 179.8(6)
C16 C17 C22 C21 -179.4(6)
C17 C18 C19 C20 -0.5(9)
C18 C17 C22 C21 0.2(9)
C18 C19 C20 C21 0.2(8)
C18 C19 C20 C23 -179.5(5)
C19 C20 C21 C22 0.2(9)
C19 C20 C23 C24 179.6(7)
C20 C21 C22 C17 -0.5(10)
C20 C23 C24 C25 -179.7(6)
C21 C20 C23 C24 -0.1(11)
C22 C17 C18 C19 0.2(8)
C23 C20 C21 C22 179.9(6)
C23 C24 C25 C26 1.4(11)
C23 C24 C25 C30 -178.3(7)
C24 C25 C26 C27 -178.7(6)
C24 C25 C30 C29 178.6(6)
C25 C26 C27 C28 -0.3(10)
C26 C25 C30 C29 -1.1(10)
C26 C27 C28 C29 -0.4(10)
C27 C28 C29 C30 0.4(10)
C28 C29 C30 C25 0.5(11)
C30 C25 C26 C27 1.0(9)
C31 C32 C33 C34 0.9(11)
C31 C36 C37 C38 -0.3(10)
C31 C44 C45 C46 -130.9(7)
C32 C31 C36 C35 0.0(9)
C32 C31 C36 C37 -179.5(6)
C32 C31 C44 C43 179.3(6)
C32 C31 C44 C45 0.6(9)
C32 C33 C34 C35 -1.7(12)
C33 C34 C35 C36 1.7(12)
C34 C35 C36 C31 -0.8(10)
C34 C35 C36 C37 178.7(7)
C35 C36 C37 C38 -179.8(6)
C36 C31 C32 C33 0.0(10)
C36 C31 C44 C43 -2.0(9)
C36 C31 C44 C45 179.3(5)
C36 C37 C38 C39 179.7(7)
C36 C37 C38 C43 -0.7(10)
C37 C38 C39 C40 -179.1(7)
C37 C38 C43 C42 177.1(6)
C37 C38 C43 C44 0.3(9)
C38 C39 C40 C41 1.8(12)
C38 C43 C44 C31 1.0(9)
C38 C43 C44 C45 179.7(6)
C39 C38 C43 C42 -3.3(9)
C39 C38 C43 C44 180.0(6)
C39 C40 C41 C42 -2.7(12)
C40 C41 C42 C43 0.6(11)
C41 C42 C43 C38 2.4(10)
C41 C42 C43 C44 179.0(7)
C42 C43 C44 C31 -175.5(6)
C42 C43 C44 C45 3.1(10)
C43 C38 C39 C40 1.3(11)
C43 C44 C45 C46 50.4(10)
C44 C31 C32 C33 178.7(7)
C44 C31 C36 C35 -178.9(6)
C44 C31 C36 C37 1.6(9)
C44 C45 C46 C47 177.8(6)
C45 C46 C47 C48 179.7(7)
C45 C46 C47 C52 -3.3(11)
C46 C47 C48 C49 177.5(6)
C46 C47 C52 C51 -177.5(6)
C47 C48 C49 C50 0.4(10)
C48 C47 C52 C51 -0.5(9)
C48 C49 C50 C51 -0.8(9)
C48 C49 C50 C53 178.4(6)
C49 C50 C51 C52 0.6(10)
C49 C50 C53 C54 -7.4(11)
C50 C51 C52 C47 0.0(10)
C50 C53 C54 C55 178.7(6)
C51 C50 C53 C54 171.9(7)
C52 C47 C48 C49 0.3(9)
C53 C50 C51 C52 -178.7(6)
C53 C54 C55 C56 -171.9(7)
C53 C54 C55 C60 6.6(11)
C54 C55 C56 C57 177.1(6)
C54 C55 C60 C59 -176.7(6)
C55 C56 C57 C58 0.8(11)
C56 C55 C60 C59 1.8(10)
C56 C57 C58 C59 -0.3(11)
C57 C58 C59 C60 0.6(11)
C58 C59 C60 C55 -1.3(11)
C60 C55 C56 C57 -1.5(10)
