#------------------------------------------------------------------------------
#$Date: 2016-10-17 13:43:53 +0300 (Mon, 17 Oct 2016) $
#$Revision: 187363 $
#$URL: file:///home/coder/svn-repositories/cod/cif/5/90/00/5900009.cif $
#------------------------------------------------------------------------------
#
# This file is available in the Crystallography Open Database (COD),
# http://www.crystallography.net/
#
# All data on this site have been placed in the public domain by the
# contributors.
#
data_5900009
_journal_name_full               'Trans. Faraday Soc.'
_journal_page_first              24
_journal_volume                  40
_journal_year                    1944
_chemical_formula_sum            'C2 H4'
_chemical_name_systematic        Ethylene
_symmetry_Int_Tables_number      58
_symmetry_space_group_name_H-M   'P n n m'
_cell_angle_alpha                90
_cell_angle_beta                 90
_cell_angle_gamma                90
_cell_formula_units_Z            2
_cell_length_a                   4.87
_cell_length_b                   6.46
_cell_length_c                   4.15
_diffrn_ambient_temperature      98
_cod_data_source_file            010_ethylene.cif
_cod_data_source_block           ethylene
_cod_database_code               5900009
loop_
_atom_site_label
_atom_site_type_symbol
_atom_site_symmetry_multiplicity
_atom_site_Wyckoff_symbol
_atom_site_fract_x
_atom_site_fract_y
_atom_site_fract_z
_atom_site_attached_hydrogens
C C 4 g 0.11 0.06 0 2
loop_
_citation_author_citation_id
_citation_author_name
1 'A. I. Kitajgorodskij'
loop_
_citation_id
_citation_coordinate_linkage
_citation_title
_citation_book_title
_citation_country
_citation_page_first
_citation_page_last
_citation_year
_citation_book_publisher
_cod_citation_special_details
1 yes ? 'Organicheskaja Kristallokhimija' USSR ? ? 1955
'Izdatel'stvo Akademii Nauk SSSR'
;

Coordinates are presented as published in this book, Kitajgorodskij's
"Organicheskaja Kristallokhimija", keyed in manually.

Saulius Gra\<zulis
;
