#------------------------------------------------------------------------------
#$Date: 2016-02-14 06:40:26 +0200 (Sun, 14 Feb 2016) $
#$Revision: 176432 $
#$URL: svn://www.crystallography.net/cod/cif/2/10/12/2101274.cif $
#------------------------------------------------------------------------------
#
# This file is available in the Crystallography Open Database (COD),
# http://www.crystallography.net/. The original data for this entry
# were provided by IUCr Journals, http://journals.iucr.org/.
#
# The file may be used within the scientific community so long as
# proper attribution is given to the journal article from which the
# data were obtained.
#
data_2101274
loop_
_publ_author_name
'Ogawa, K.'
'Harada, J.'
'Tomoda, S.'
_publ_section_title
;
 Unusually short ethylene bond and large amplitude torsional motion of
 (<i>E</i>)-stilbenes in crystals. X-ray crystallographic study of
 `stiff' stilbenes
;
_journal_issue                   2
_journal_name_full               'Acta Crystallographica Section B'
_journal_page_first              240
_journal_page_last               248
_journal_paper_doi               10.1107/S010876819400950X
_journal_volume                  51
_journal_year                    1995
_chemical_formula_moiety         'C20 H20'
_chemical_formula_sum            'C20 H20'
_chemical_formula_weight         260.38
_chemical_melting_point          425.0
_chemical_name_systematic        '      (E)-7,7'-dimethyl-1,1'-biindanylidene'
_space_group_IT_number           2
_symmetry_cell_setting           triclinic
_symmetry_space_group_name_Hall  '-P 1'
_symmetry_space_group_name_H-M   'P -1'
_cell_angle_alpha                98.444(8)
_cell_angle_beta                 98.961(9)
_cell_angle_gamma                90.552(9)
_cell_formula_units_Z            4
_cell_length_a                   13.188(2)
_cell_length_b                   14.693(2)
_cell_length_c                   7.6702(7)
_cell_measurement_reflns_used    25
_cell_measurement_temperature    120
_cell_measurement_theta_max      79.8
_cell_measurement_theta_min      74.8
_cell_volume                     1451.4(3)
_computing_cell_refinement       MSC/AFC
_computing_data_collection
;
Rigaku AFC6A, MSC/AFC Diffractometer Control Software
;
_computing_data_reduction        xtal_DIFDAT_ADDREF_SORTRF
_computing_molecular_graphics    xtal_ORTEP
_computing_publication_material  xtal_BONDLA_CIFIO
_computing_structure_refinement  xtal_CRYLSQ
_computing_structure_solution    'SHELXS86 (Sheldrick)'
_diffrn_ambient_temperature      120
_diffrn_measurement_device       'Rigaku AFC6A'
_diffrn_measurement_method       \q/2\q
_diffrn_radiation_monochromator  graphite
_diffrn_radiation_source         xray_tube
_diffrn_radiation_type           'Copper K\a'
_diffrn_radiation_wavelength     1.54184
_diffrn_reflns_av_R_equivalents  .007
_diffrn_reflns_av_sigmaI/netI    .015
_diffrn_reflns_limit_h_max       14
_diffrn_reflns_limit_h_min       -3
_diffrn_reflns_limit_k_max       16
_diffrn_reflns_limit_k_min       -16
_diffrn_reflns_limit_l_max       8
_diffrn_reflns_limit_l_min       -8
_diffrn_reflns_number            4516
_diffrn_reflns_reduction_process perpendicular_monochr_Lp
_diffrn_reflns_theta_max         59.97
_diffrn_reflns_theta_min         3.04
_diffrn_standards_decay_%        0
_diffrn_standards_interval_count 100
_diffrn_standards_number         3
_exptl_absorpt_coefficient_mu    0.47
_exptl_absorpt_correction_type   none
_exptl_absorpt_process_details   'Absorption correction not applied'
_exptl_crystal_colour            colorless
_exptl_crystal_density_diffrn    1.192
_exptl_crystal_description       rectangular
_exptl_crystal_F_000             560
_exptl_crystal_size_max          0.25
_exptl_crystal_size_mid          0.20
_exptl_crystal_size_min          0.20
_refine_diff_density_max         .16
_refine_diff_density_min         -.271
_refine_ls_abs_structure_details none
_refine_ls_abs_structure_Flack   0
_refine_ls_extinction_coef       .00000
_refine_ls_extinction_method     none
_refine_ls_goodness_of_fit_all   1.79
_refine_ls_goodness_of_fit_obs   1.897
_refine_ls_hydrogen_treatment    'no restraint'
_refine_ls_matrix_type           full
_refine_ls_number_constraints    0
_refine_ls_number_parameters     521
_refine_ls_number_reflns         3529
_refine_ls_number_restraints     0
_refine_ls_R_factor_all          .048
_refine_ls_R_factor_obs          .039
_refine_ls_shift/esd_max         .002
_refine_ls_structure_factor_coef F
_refine_ls_weighting_details     'w = 1/(\s^2^(F)+0.0002F^2^)'
_refine_ls_weighting_scheme      calc
_refine_ls_wR_factor_all         .046
_refine_ls_wR_factor_obs         .044
_reflns_number_observed          3529
_reflns_number_total             4159
_reflns_observed_criterion       refl_observed_if_Inet_>2.000_sigma(Inet)
_cod_data_source_file            as0668.cif
_cod_data_source_block           7in120
_cod_depositor_comments
;
The following automatic conversions were performed:

'_refine_ls_weighting_scheme' value '1/(\s^2^(F)+0.0002F^2^)' was
changed to 'calc'. New tag '_refine_ls_weighting_details' was
created. The value of the new tag was set to 'w =
1/(\s^2^(F)+0.0002F^2^)'.

Automatic conversion script
Id: cif_fix_values 3143 2015-03-26 13:38:13Z robertas 
;
_cod_original_cell_volume        1451.5(3)
_cod_original_sg_symbol_Hall     -P_1
_cod_database_code               2101274
loop_
_symmetry_equiv_pos_as_xyz
+x,+y,+z
-x,-y,-z
loop_
_atom_site_aniso_label
_atom_site_aniso_U_11
_atom_site_aniso_U_22
_atom_site_aniso_U_33
_atom_site_aniso_U_12
_atom_site_aniso_U_13
_atom_site_aniso_U_23
C101 .01920 .01716 .01511 .00414 .00203 .00198
C102 .02322 .02080 .01901 .00757 .00659 .00547
C103 .02909 .02872 .01647 .00992 .00842 .00334
C104 .02150 .03230 .01743 .00212 .00154 .00813
C105 .02307 .03006 .02394 .00160 -.00121 .01179
C106 .02400 .02144 .02647 .00362 -.00112 .00629
C107 .01837 .02070 .02006 .00246 .00169 .00330
C108 .01549 .02191 .01665 .00215 .00061 .00392
C109 .01562 .02537 .01738 .00291 .00141 .00372
C110 .04081 .02197 .02472 .00982 .00907 .00274
C111 .01832 .01966 .01612 .00574 .00266 .00148
C112 .02023 .02873 .02121 .00811 .00624 .00605
C113 .01826 .03539 .02284 .00346 .00600 .00596
C114 .02754 .02890 .02145 -.00345 .00840 .00504
C115 .03717 .02440 .02158 .00192 .00939 .00675
C116 .02891 .02495 .01649 .00869 .00641 .00438
C117 .02058 .01997 .01367 .00563 .00580 .00001
C118 .02079 .01838 .01207 .00329 .00552 .00071
C119 .02212 .02615 .01501 .00181 .00595 .00158
C120 .02105 .02593 .02127 .00557 .00431 .00543
C201 .01975 .01850 .01894 .00552 .00497 .00054
C202 .02003 .02690 .02477 .00648 .00671 .00876
C203 .02885 .02740 .02561 .00634 .01181 .00695
C204 .03824 .02388 .01756 .00247 .00497 .00312
C205 .03376 .03125 .02200 .00316 -.00346 .00654
C206 .02384 .02611 .02743 .00384 -.00123 .00424
C207 .02158 .01925 .02148 .00290 .00168 .00236
C208 .02254 .01427 .01880 .00102 .00248 .00119
C209 .02804 .01563 .01990 .00347 .00465 .00128
C210 .02182 .02628 .02522 .00613 .00412 .00400
C211 .01852 .01719 .01845 .00450 .00417 -.00053
C212 .01891 .02297 .02043 .00179 .00277 .00320
C213 .02545 .02063 .02113 .00098 .00441 .00381
C214 .02618 .02199 .02261 .00714 .00761 .00638
C215 .02425 .02752 .02158 .01074 .00445 .00733
C216 .01905 .02603 .01924 .00656 .00428 .00350
C217 .01857 .02257 .01855 .00476 .00707 .00349
C218 .01808 .01923 .01586 .00538 .00587 .00253
C219 .02277 .01789 .01776 .00441 .00820 .00155
C220 .02459 .02054 .02902 .00323 .00038 .00437
loop_
_atom_site_label
_atom_site_fract_x
_atom_site_fract_y
_atom_site_fract_z
_atom_site_U_iso_or_equiv
_atom_site_thermal_displace_type
C101 .31600(10) .70060(10) -.0847(2) .01725 Uani
C102 .3967(2) .64540(10) -.1719(2) .02037 Uani
C103 .3697(2) .65960(10) -.3698(2) .02419 Uani
C104 .31380(10) .81340(10) -.4809(2) .02346 Uani
C105 .27600(10) .90010(10) -.4348(3) .02543 Uani
C106 .25170(10) .92640(10) -.2648(3) .02423 Uani
C107 .26060(10) .86710(10) -.1368(2) .01982 Uani
C108 .29470(10) .77830(10) -.1871(2) .01811 Uani
C109 .32450(10) .75380(10) -.3555(2) .01952 Uani
C110 .2414(2) .90220(10) .0494(3) .02877 Uani
C111 .26150(10) .67140(10) .0326(2) .01813 Uani
C112 .15420(10) .70110(10) .0599(3) .02279 Uani
C113 .09810(10) .60880(10) .0623(3) .02502 Uani
C114 .1756(2) .46840(10) .2021(2) .02538 Uani
C115 .2656(2) .42600(10) .2627(2) .02687 Uani
C116 .3604(2) .46650(10) .2590(2) .02297 Uani
C117 .37010(10) .54890(10) .1903(2) .01796 Uani
C118 .27890(10) .58810(10) .1200(2) .01691 Uani
C119 .18320(10) .54990(10) .1338(2) .02092 Uani
C120 .47450(10) .59430(10) .2071(3) .02243 Uani
C201 -.20040(10) .81800(10) .0572(2) .01906 Uani
C202 -.10270(10) .84740(10) -.0047(2) .02303 Uani
C203 -.1323(2) .83320(10) -.2093(3) .02614 Uani
C204 -.3078(2) .86930(10) -.3863(3) .02649 Uani
C205 -.4109(2) .88600(10) -.3783(3) .02958 Uani
C206 -.4492(2) .88350(10) -.2207(3) .02632 Uani
C207 -.38860(10) .86140(10) -.0670(2) .02101 Uani
C208 -.28590(10) .84040(10) -.0785(2) .01875 Uani
C209 -.24630(10) .84770(10) -.2362(2) .02122 Uani
C210 -.4339(2) .86790(10) .1025(3) .02435 Uani
C211 -.20440(10) .76490(10) .1853(2) .01822 Uani
C212 -.29450(10) .70320(10) .1999(2) .02081 Uani
C213 -.24330(10) .61440(10) .2506(3) .02226 Uani
C214 -.06630(10) .60320(10) .4496(2) .02284 Uani
C215 .02610(10) .64890(10) .5279(2) .02393 Uani
C216 .04470(10) .73890(10) .5043(2) .02126 Uani
C217 -.02560(10) .78530(10) .3957(2) .01939 Uani
C218 -.11590(10) .73700(10) .3088(2) .01736 Uani
C219 -.13740(10) .64780(10) .3423(2) .01903 Uani
C220 -.0058(2) .88620(10) .3940(3) .02505 Uani
H1021 .3950(10) .5790(10) -.155(2) .02000 Uiso
H1022 .470(2) .6730(10) -.121(2) .02800 Uiso
H1031 .317(2) .6130(10) -.439(3) .03200 Uiso
H1032 .432(2) .6550(10) -.435(3) .03500 Uiso
H104 .3360(10) .7940(10) -.603(3) .03300 Uiso
H105 .2700(10) .9460(10) -.522(3) .03200 Uiso
H106 .232(2) .9900(10) -.230(3) .03600 Uiso
H1101 .166(2) .899(2) .057(3) .05300 Uiso
H1102 .267(2) .970(2) .084(3) .05500 Uiso
H1103 .277(2) .8660(10) .140(3) .03800 Uiso
H1121 .1190(10) .7350(10) -.041(2) .01900 Uiso
H1122 .1560(10) .7410(10) .179(3) .03200 Uiso
H1131 .0690(10) .5810(10) -.062(3) .03100 Uiso
H1132 .042(2) .6140(10) .133(3) .03300 Uiso
H114 .106(2) .4410(10) .206(3) .03400 Uiso
H115 .2630(10) .3660(10) .313(3) .03700 Uiso
H116 .4270(10) .4400(10) .313(2) .02700 Uiso
H1201 .510(2) .5750(10) .097(3) .03500 Uiso
H1202 .521(2) .5820(10) .319(3) .03400 Uiso
H1203 .469(2) .662(2) .212(3) .03800 Uiso
H2021 -.0440(10) .8110(10) .038(2) .02100 Uiso
H2022 -.0850(10) .9170(10) .044(2) .02800 Uiso
H2031 -.1180(10) .7680(10) -.258(3) .03300 Uiso
H2032 -.0930(10) .8780(10) -.264(3) .03200 Uiso
H204 -.279(2) .8750(10) -.495(3) .03500 Uiso
H205 -.456(2) .9040(10) -.486(3) .03400 Uiso
H206 -.522(2) .9020(10) -.214(3) .03700 Uiso
H2101 -.470(2) .807(2) .111(3) .04200 Uiso
H2102 -.488(2) .9170(10) .107(3) .04300 Uiso
H2103 -.380(2) .8820(10) .213(3) .03800 Uiso
H2121 -.3470(10) .6930(10) .086(3) .02700 Uiso
H2122 -.3350(10) .7310(10) .297(3) .02700 Uiso
H2131 -.240(2) .5700(10) .145(3) .03700 Uiso
H2132 -.2820(10) .5840(10) .333(2) .02400 Uiso
H214 -.080(2) .5400(10) .473(3) .03600 Uiso
H215 .0780(10) .6170(10) .609(2) .02600 Uiso
H216 .109(2) .7730(10) .569(3) .03200 Uiso
H2201 .040(2) .8970(10) .301(3) .04300 Uiso
H2202 .0300(10) .9170(10) .516(3) .03200 Uiso
H2203 -.073(2) .9170(10) .363(3) .03900 Uiso
loop_
_atom_type_symbol
_atom_type_scat_dispersion_real
_atom_type_scat_dispersion_imag
_atom_type_scat_source
C .017 .009 'IntTabIV Tables 2.2B and 2.3.1'
H 0 0 'IntTabIV Tables 2.2B and 2.3.1'
loop_
_diffrn_standard_refln_index_h
_diffrn_standard_refln_index_k
_diffrn_standard_refln_index_l
-2 -2 1
-3 0 2
-2 0 2
loop_
_geom_angle_atom_site_label_1
_geom_angle_atom_site_label_2
_geom_angle_atom_site_label_3
_geom_angle
C102 C101 C108 105.2(2)
C102 C101 C111 125.0(2)
C108 C101 C111 128.2(2)
C101 C102 C103 102.60(10)
C101 C102 H1021 113.0(10)
C101 C102 H1022 111.0(10)
C103 C102 H1021 113.0(10)
C103 C102 H1022 109.0(10)
H1021 C102 H1022 108.0(10)
C102 C103 C109 102.70(10)
C102 C103 H1031 112.0(10)
C102 C103 H1032 113.0(10)
C109 C103 H1031 109.0(10)
C109 C103 H1032 113.0(10)
H1031 C103 H1032 107(2)
C105 C104 C109 118.5(2)
C105 C104 H104 121.0(10)
C109 C104 H104 120.0(10)
C104 C105 C106 120.2(2)
C104 C105 H105 120.0(10)
C106 C105 H105 119.0(10)
C105 C106 C107 122.3(2)
C105 C106 H106 119.0(10)
C107 C106 H106 118.0(10)
C106 C107 C108 117.0(2)
C106 C107 C110 119.6(2)
C108 C107 C110 123.2(2)
C101 C108 C107 131.1(2)
C101 C108 C109 108.30(10)
C107 C108 C109 120.4(2)
C103 C109 C104 128.2(2)
C103 C109 C108 110.4(2)
C104 C109 C108 121.4(2)
C107 C110 H1101 111.0(10)
C107 C110 H1102 109.0(10)
C107 C110 H1103 113.0(10)
H1101 C110 H1102 108(2)
H1101 C110 H1103 107(2)
H1102 C110 H1103 109(2)
C101 C111 C112 125.5(2)
C101 C111 C118 127.0(2)
C112 C111 C118 105.5(2)
C111 C112 C113 102.60(10)
C111 C112 H1121 112.0(10)
C111 C112 H1122 111.0(10)
C113 C112 H1121 112.0(9)
C113 C112 H1122 109.0(10)
H1121 C112 H1122 110(2)
C112 C113 C119 103.30(10)
C112 C113 H1131 109.0(10)
C112 C113 H1132 114.0(10)
C119 C113 H1131 109.0(10)
C119 C113 H1132 113.0(10)
H1131 C113 H1132 108(2)
C115 C114 C119 118.6(2)
C115 C114 H114 121.0(10)
C119 C114 H114 120.0(10)
C114 C115 C116 120.3(2)
C114 C115 H115 121.0(10)
C116 C115 H115 119.0(10)
C115 C116 C117 122.2(2)
C115 C116 H116 121.0(10)
C117 C116 H116 116.0(10)
C116 C117 C118 117.0(2)
C116 C117 C120 119.5(2)
C118 C117 C120 123.4(2)
C111 C118 C117 131.0(2)
C111 C118 C119 108.40(10)
C117 C118 C119 120.5(2)
C113 C119 C114 128.7(2)
C113 C119 C118 110.2(2)
C114 C119 C118 121.2(2)
C117 C120 H1201 113.0(10)
C117 C120 H1202 111.0(10)
C117 C120 H1203 111.0(10)
H1201 C120 H1202 110(2)
H1201 C120 H1203 104(2)
H1202 C120 H1203 108(2)
C202 C201 C208 105.50(10)
C202 C201 C211 125.1(2)
C208 C201 C211 127.9(2)
C201 C202 C203 103.00(10)
C201 C202 H2021 111.0(10)
C201 C202 H2022 110.0(10)
C203 C202 H2021 114.0(10)
C203 C202 H2022 111.0(10)
H2021 C202 H2022 108.0(10)
C202 C203 C209 103.1(2)
C202 C203 H2031 109.0(10)
C202 C203 H2032 111.0(10)
C209 C203 H2031 110.0(10)
C209 C203 H2032 113.0(10)
H2031 C203 H2032 110(2)
C205 C204 C209 118.5(2)
C205 C204 H204 121.0(10)
C209 C204 H204 121.0(10)
C204 C205 C206 120.2(2)
C204 C205 H205 119.0(10)
C206 C205 H205 120.0(10)
C205 C206 C207 122.3(2)
C205 C206 H206 119.0(10)
C207 C206 H206 118.0(10)
C206 C207 C208 117.2(2)
C206 C207 C210 118.8(2)
C208 C207 C210 123.9(2)
C201 C208 C207 131.5(2)
C201 C208 C209 108.2(2)
C207 C208 C209 120.0(2)
C203 C209 C204 128.0(2)
C203 C209 C208 110.4(2)
C204 C209 C208 121.6(2)
C207 C210 H2101 111.0(10)
C207 C210 H2102 111.0(10)
C207 C210 H2103 112.0(10)
H2101 C210 H2102 107(2)
H2101 C210 H2103 107(2)
H2102 C210 H2103 109(2)
C201 C211 C212 125.90(10)
C201 C211 C218 126.6(2)
C212 C211 C218 105.9(2)
C211 C212 C213 103.50(10)
C211 C212 H2121 112.0(10)
C211 C212 H2122 113.0(10)
C213 C212 H2121 114.0(10)
C213 C212 H2122 110.0(10)
H2121 C212 H2122 105.0(10)
C212 C213 C219 103.40(10)
C212 C213 H2131 111.0(10)
C212 C213 H2132 112.0(10)
C219 C213 H2131 111.0(10)
C219 C213 H2132 111.0(10)
H2131 C213 H2132 108(2)
C215 C214 C219 119.0(2)
C215 C214 H214 120.0(10)
C219 C214 H214 121.0(10)
C214 C215 C216 120.4(2)
C214 C215 H215 120.0(10)
C216 C215 H215 120.0(10)
C215 C216 C217 121.7(2)
C215 C216 H216 120.0(10)
C217 C216 H216 119.0(10)
C216 C217 C218 117.6(2)
C216 C217 C220 118.50(10)
C218 C217 C220 123.6(2)
C211 C218 C217 131.2(2)
C211 C218 C219 108.30(10)
C217 C218 C219 120.4(2)
C213 C219 C214 128.6(2)
C213 C219 C218 110.6(2)
C214 C219 C218 120.7(2)
C217 C220 H2201 112.0(10)
C217 C220 H2202 110.0(10)
C217 C220 H2203 110.0(10)
H2201 C220 H2202 108(2)
H2201 C220 H2203 107(2)
H2202 C220 H2203 109(2)
loop_
_geom_bond_atom_site_label_1
_geom_bond_atom_site_label_2
_geom_bond_distance
C101 C102 1.523(3)
C101 C108 1.483(3)
C101 C111 1.348(3)
C102 C103 1.549(3)
C102 H1021 1.00(2)
C102 H1022 1.03(2)
C103 C109 1.508(3)
C103 H1031 1.00(2)
C103 H1032 1.02(2)
C104 C105 1.390(3)
C104 C109 1.385(3)
C104 H104 1.03(2)
C105 C106 1.391(3)
C105 H105 1.01(2)
C106 C107 1.398(3)
C106 H106 .99(2)
C107 C108 1.404(2)
C107 C110 1.506(3)
C108 C109 1.406(2)
C110 H1101 1.01(3)
C110 H1102 1.03(2)
C110 H1103 1.00(2)
C111 C112 1.521(3)
C111 C118 1.483(3)
C112 C113 1.542(3)
C112 H1121 1.03(2)
C112 H1122 1.01(2)
C113 C119 1.508(3)
C113 H1131 1.00(2)
C113 H1132 .98(2)
C114 C115 1.392(3)
C114 C119 1.385(3)
C114 H114 1.01(2)
C115 C116 1.386(3)
C115 H115 1.01(2)
C116 C117 1.402(3)
C116 H116 1.01(2)
C117 C118 1.403(2)
C117 C120 1.502(3)
C118 C119 1.402(3)
C120 H1201 1.04(2)
C120 H1202 1.01(2)
C120 H1203 1.00(2)
C201 C202 1.521(3)
C201 C208 1.485(2)
C201 C211 1.349(3)
C202 C203 1.539(3)
C202 H2021 .98(2)
C202 H2022 1.04(2)
C203 C209 1.507(3)
C203 H2031 1.00(2)
C203 H2032 1.01(2)
C204 C205 1.392(3)
C204 C209 1.380(3)
C204 H204 .99(2)
C205 C206 1.387(3)
C205 H205 1.01(2)
C206 C207 1.399(3)
C206 H206 1.01(2)
C207 C208 1.404(3)
C207 C210 1.504(3)
C208 C209 1.407(3)
C210 H2101 1.03(2)
C210 H2102 1.02(2)
C210 H2103 1.01(2)
C211 C212 1.515(3)
C211 C218 1.485(2)
C212 C213 1.547(3)
C212 H2121 1.02(2)
C212 H2122 1.02(2)
C213 C219 1.505(2)
C213 H2131 .97(2)
C213 H2132 1.02(2)
C214 C215 1.390(2)
C214 C219 1.384(3)
C214 H214 .99(2)
C215 C216 1.386(3)
C215 H215 1.01(2)
C216 C217 1.399(3)
C216 H216 1.00(2)
C217 C218 1.401(2)
C217 C220 1.505(3)
C218 C219 1.407(3)
C220 H2201 1.04(2)
C220 H2202 1.02(2)
C220 H2203 1.02(2)
loop_
_geom_torsion_atom_site_label_1
_geom_torsion_atom_site_label_2
_geom_torsion_atom_site_label_3
_geom_torsion_atom_site_label_4
_geom_torsion
C108 C101 C102 C103 -31.9(2)
C108 C101 C102 H1021 -154.0(10)
C108 C101 C102 H1022 85.0(10)
C111 C101 C102 C103 135.0(2)
C111 C101 C102 H1021 13.0(10)
C111 C101 C102 H1022 -108.0(10)
C102 C101 C108 C107 -152.6(2)
C102 C101 C108 C109 21.6(2)
C111 C101 C108 C107 41.0(3)
C111 C101 C108 C109 -144.8(2)
C102 C101 C111 C112 -151.6(2)
C102 C101 C111 C118 9.7(3)
C108 C101 C111 C112 12.3(3)
C108 C101 C111 C118 173.60(10)
C101 C102 C103 C109 30.1(2)
C101 C102 C103 H1031 -87.0(10)
C101 C102 C103 H1032 152.0(10)
H1021 C102 C103 C109 152.0(10)
H1021 C102 C103 H1031 35(2)
H1021 C102 C103 H1032 -86(2)
H1022 C102 C103 C109 -88.0(10)
H1022 C102 C103 H1031 155(2)
H1022 C102 C103 H1032 35(2)
C102 C103 C109 C104 159.7(2)
C102 C103 C109 C108 -18.3(2)
H1031 C103 C109 C104 -81.0(10)
H1031 C103 C109 C108 101.0(10)
H1032 C103 C109 C104 38.0(10)
H1032 C103 C109 C108 -140.0(10)
C109 C104 C105 C106 1.3(3)
C109 C104 C105 H105 178.0(10)
H104 C104 C105 C106 -177.0(10)
H104 C104 C105 H105 0(2)
C105 C104 C109 C103 -175.6(2)
C105 C104 C109 C108 2.2(3)
H104 C104 C109 C103 2.0(10)
H104 C104 C109 C108 -180.0(10)
C104 C105 C106 C107 -2.1(3)
C104 C105 C106 H106 174.0(10)
H105 C105 C106 C107 -179.0(10)
H105 C105 C106 H106 -3(2)
C105 C106 C107 C108 -.6(3)
C105 C106 C107 C110 175.0(2)
H106 C106 C107 C108 -177.0(10)
H106 C106 C107 C110 -1.0(10)
C106 C107 C108 C101 177.6(2)
C106 C107 C108 C109 4.0(2)
C110 C107 C108 C101 2.2(3)
C110 C107 C108 C109 -171.4(2)
C106 C107 C110 H1101 84.0(10)
C106 C107 C110 H1102 -35.0(10)
C106 C107 C110 H1103 -156.0(10)
C108 C107 C110 H1101 -101.0(10)
C108 C107 C110 H1102 140.0(10)
C108 C107 C110 H1103 19.0(10)
C101 C108 C109 C103 -1.7(2)
C101 C108 C109 C104 -179.9(2)
C107 C108 C109 C103 173.2(2)
C107 C108 C109 C104 -5.0(2)
C101 C111 C112 C113 133.6(2)
C101 C111 C112 H1121 13.0(10)
C101 C111 C112 H1122 -111.0(10)
C118 C111 C112 C113 -31.0(2)
C118 C111 C112 H1121 -151.0(10)
C118 C111 C112 H1122 85.0(10)
C101 C111 C118 C117 39.9(3)
C101 C111 C118 C119 -143.0(2)
C112 C111 C118 C117 -155.8(2)
C112 C111 C118 C119 21.3(2)
C111 C112 C113 C119 29.0(2)
C111 C112 C113 H1131 -87.0(10)
C111 C112 C113 H1132 152.0(10)
H1121 C112 C113 C119 150.0(10)
H1121 C112 C113 H1131 34(2)
H1121 C112 C113 H1132 -88(2)
H1122 C112 C113 C119 -88.0(10)
H1122 C112 C113 H1131 156(2)
H1122 C112 C113 H1132 34(2)
C112 C113 C119 C114 164.0(2)
C112 C113 C119 C118 -17.3(2)
H1131 C113 C119 C114 -80.0(10)
H1131 C113 C119 C118 99.0(10)
H1132 C113 C119 C114 40.0(10)
H1132 C113 C119 C118 -141.0(10)
C119 C114 C115 C116 1.8(3)
C119 C114 C115 H115 -180.0(10)
H114 C114 C115 C116 -179.0(10)
H114 C114 C115 H115 0(2)
C115 C114 C119 C113 -179.3(2)
C115 C114 C119 C118 2.1(3)
H114 C114 C119 C113 1.0(10)
H114 C114 C119 C118 -177.0(10)
C114 C115 C116 C117 -2.0(3)
C114 C115 C116 H116 174.0(10)
H115 C115 C116 C117 180.0(10)
H115 C115 C116 H116 -4(2)
C115 C116 C117 C118 -1.7(2)
C115 C116 C117 C120 173.8(2)
H116 C116 C117 C118 -178.0(10)
H116 C116 C117 C120 -3.0(10)
C116 C117 C118 C111 -177.6(2)
C116 C117 C118 C119 5.6(2)
C120 C117 C118 C111 7.1(3)
C120 C117 C118 C119 -169.7(2)
C116 C117 C120 H1201 93.0(10)
C116 C117 C120 H1202 -31.0(10)
C116 C117 C120 H1203 -151.0(10)
C118 C117 C120 H1201 -92.0(10)
C118 C117 C120 H1202 144.0(10)
C118 C117 C120 H1203 24.0(10)
C111 C118 C119 C113 -2.2(2)
C111 C118 C119 C114 176.6(2)
C117 C118 C119 C113 175.30(10)
C117 C118 C119 C114 -5.9(2)
C208 C201 C202 C203 -30.7(2)
C208 C201 C202 H2021 -153.0(10)
C208 C201 C202 H2022 87.0(10)
C211 C201 C202 C203 136.2(2)
C211 C201 C202 H2021 14.0(10)
C211 C201 C202 H2022 -106.0(10)
C202 C201 C208 C207 -153.2(2)
C202 C201 C208 C209 20.7(2)
C211 C201 C208 C207 40.3(3)
C211 C201 C208 C209 -145.8(2)
C202 C201 C211 C212 -153.2(2)
C202 C201 C211 C218 10.2(3)
C208 C201 C211 C212 10.8(3)
C208 C201 C211 C218 174.1(2)
C201 C202 C203 C209 29.0(2)
C201 C202 C203 H2031 -88.0(10)
C201 C202 C203 H2032 150.0(10)
H2021 C202 C203 C209 149.0(10)
H2021 C202 C203 H2031 32(2)
H2021 C202 C203 H2032 -90(2)
H2022 C202 C203 C209 -89.0(10)
H2022 C202 C203 H2031 154(2)
H2022 C202 C203 H2032 33(2)
C202 C203 C209 C204 159.7(2)
C202 C203 C209 C208 -17.6(2)
H2031 C203 C209 C204 -84.0(10)
H2031 C203 C209 C208 98.0(10)
H2032 C203 C209 C204 40.0(10)
H2032 C203 C209 C208 -137.0(10)
C209 C204 C205 C206 1.9(3)
C209 C204 C205 H205 178.0(10)
H204 C204 C205 C206 -176.0(10)
H204 C204 C205 H205 0(2)
C205 C204 C209 C203 -175.6(2)
C205 C204 C209 C208 1.4(3)
H204 C204 C209 C203 2.0(10)
H204 C204 C209 C208 179.0(10)
C204 C205 C206 C207 -2.2(3)
C204 C205 C206 H206 174.0(10)
H205 C205 C206 C207 -178.0(10)
H205 C205 C206 H206 -2(2)
C205 C206 C207 C208 -.8(3)
C205 C206 C207 C210 175.0(2)
H206 C206 C207 C208 -177.0(10)
H206 C206 C207 C210 -1.0(10)
C206 C207 C208 C201 177.3(2)
C206 C207 C208 C209 4.0(2)
C210 C207 C208 C201 1.7(3)
C210 C207 C208 C209 -171.6(2)
C206 C207 C210 H2101 90.0(10)
C206 C207 C210 H2102 -29.0(10)
C206 C207 C210 H2103 -151.0(10)
C208 C207 C210 H2101 -95.0(10)
C208 C207 C210 H2102 146.0(10)
C208 C207 C210 H2103 24.0(10)
C201 C208 C209 C203 -1.6(2)
C201 C208 C209 C204 -179.1(2)
C207 C208 C209 C203 173.10(10)
C207 C208 C209 C204 -4.4(2)
C201 C211 C212 C213 137.7(2)
C201 C211 C212 H2121 14.0(10)
C201 C211 C212 H2122 -104.0(10)
C218 C211 C212 C213 -28.4(2)
C218 C211 C212 H2121 -152.0(10)
C218 C211 C212 H2122 90.0(10)
C201 C211 C218 C217 38.0(3)
C201 C211 C218 C219 -145.9(2)
C212 C211 C218 C217 -155.9(2)
C212 C211 C218 C219 20.2(2)
C211 C212 C213 C219 26.0(2)
C211 C212 C213 H2131 -93.0(10)
C211 C212 C213 H2132 146.0(10)
H2121 C212 C213 C219 148.0(10)
H2121 C212 C213 H2131 29(2)
H2121 C212 C213 H2132 -92(2)
H2122 C212 C213 C219 -94.0(10)
H2122 C212 C213 H2131 146(2)
H2122 C212 C213 H2132 26.0(10)
C212 C213 C219 C214 164.1(2)
C212 C213 C219 C218 -14.7(2)
H2131 C213 C219 C214 -77.0(10)
H2131 C213 C219 C218 105.0(10)
H2132 C213 C219 C214 43.0(10)
H2132 C213 C219 C218 -135.0(10)
C219 C214 C215 C216 2.5(3)
C219 C214 C215 H215 179.0(10)
H214 C214 C215 C216 -177.0(10)
H214 C214 C215 H215 0(2)
C215 C214 C219 C213 -177.1(2)
C215 C214 C219 C218 1.6(3)
H214 C214 C219 C213 2.0(10)
H214 C214 C219 C218 -179.0(10)
C214 C215 C216 C217 -2.9(3)
C214 C215 C216 H216 175.0(10)
H215 C215 C216 C217 -179.0(10)
H215 C215 C216 H216 -1(2)
C215 C216 C217 C218 -.8(3)
C215 C216 C217 C220 172.8(2)
H216 C216 C217 C218 -179.0(10)
H216 C216 C217 C220 -5.0(10)
C216 C217 C218 C211 -179.4(2)
C216 C217 C218 C219 4.9(3)
C220 C217 C218 C211 7.3(3)
C220 C217 C218 C219 -168.4(2)
C216 C217 C220 H2201 87.0(10)
C216 C217 C220 H2202 -33.0(10)
C216 C217 C220 H2203 -153.0(10)
C218 C217 C220 H2201 -99.0(10)
C218 C217 C220 H2202 141.0(10)
C218 C217 C220 H2203 20.0(10)
C211 C218 C219 C213 -3.1(2)
C211 C218 C219 C214 178.0(2)
C217 C218 C219 C213 173.6(2)
C217 C218 C219 C214 -5.4(3)
