#------------------------------------------------------------------------------
#$Date: 2017-10-13 14:42:48 +0300 (Fri, 13 Oct 2017) $
#$Revision: 201982 $
#$URL: file:///home/coder/svn-repositories/cod/cif/4/02/73/4027338.cif $
#------------------------------------------------------------------------------
#
# This file is available in the Crystallography Open Database (COD),
# http://www.crystallography.net/
#
# All data on this site have been placed in the public domain by the
# contributors.
#
data_4027338
loop_
_publ_author_name
'Andrew J. Peloquin'
'Rebecca L. Stone'
'Sarah E. Avila'
'Erlyn R. Rudico'
'Christopher B. Horn'
'Kim A. Gardner'
'David W. Ball'
'Jane E. B. Johnson'
'Scott T. Iacono'
'Gary J. Balaich'
_publ_section_title
;
 Synthesis of 1,3-Diphenyl-6-alkyl/aryl-Substituted Fulvene Chromophores:
 Observation of \p-\p Interactions in a 6-Pyrene-Substituted
 1,3-Diphenylfulvene
;
_journal_name_full               'Journal of Organic Chemistry'
_journal_page_first              6371
_journal_page_last               6376
_journal_paper_doi               10.1021/jo301101x
_journal_volume                  77
_journal_year                    2012
_chemical_formula_iupac          'C24 H24'
_chemical_formula_moiety         'C24 H24'
_chemical_formula_sum            'C24 H24'
_chemical_formula_weight         312.43
_chemical_name_common            6-cyclohexyl-1,3-diphenylfulvene
_chemical_name_systematic        6-cyclohexyl-1,3-diphenylfulvene
_space_group_IT_number           15
_symmetry_cell_setting           monoclinic
_symmetry_space_group_name_Hall  '-C 2yc'
_symmetry_space_group_name_H-M   'C 1 2/c 1'
_atom_sites_solution_hydrogens   geom
_atom_sites_solution_primary     direct
_atom_sites_solution_secondary   difmap
_audit_creation_method           'APEX2 v2009.7-0'
_cell_angle_alpha                90
_cell_angle_beta                 93.188(2)
_cell_angle_gamma                90
_cell_formula_units_Z            8
_cell_length_a                   21.841(3)
_cell_length_b                   6.1472(8)
_cell_length_c                   26.751(3)
_cell_measurement_reflns_used    4746
_cell_measurement_temperature    100.(2)
_cell_measurement_theta_max      27.6749
_cell_measurement_theta_min      2.3447
_cell_volume                     3586.1(8)
_computing_cell_refinement       'SAINT V7.66A (Bruker AXS, 2009)'
_computing_data_collection       'Bruker SMART APEX'
_computing_data_reduction        'SAINT V7.66A (Bruker AXS, 2009)'
_computing_molecular_graphics    'Bruker SHELXTL'
_computing_publication_material  'Bruker SHELXTL'
_computing_structure_refinement  'SHELXL-97 (Sheldrick, 2008)'
_computing_structure_solution    'SHELXS-97 (Sheldrick, 2008)'
_diffrn_ambient_temperature      100.(2)
_diffrn_detector_area_resol_mean 8.3333
_diffrn_measured_fraction_theta_full 0.997
_diffrn_measured_fraction_theta_max 0.997
_diffrn_measurement_device_type  'Bruker SMART APEX CCD'
_diffrn_measurement_method       'phi and omega scans'
_diffrn_radiation_monochromator  graphite
_diffrn_radiation_source         'fine-focus sealed tube'
_diffrn_radiation_type           MoK\a
_diffrn_radiation_wavelength     0.71073
_diffrn_reflns_av_R_equivalents  0.0290
_diffrn_reflns_av_sigmaI/netI    0.0272
_diffrn_reflns_limit_h_max       28
_diffrn_reflns_limit_h_min       -28
_diffrn_reflns_limit_k_max       8
_diffrn_reflns_limit_k_min       -8
_diffrn_reflns_limit_l_max       35
_diffrn_reflns_limit_l_min       -35
_diffrn_reflns_number            17871
_diffrn_reflns_theta_full        27.83
_diffrn_reflns_theta_max         27.83
_diffrn_reflns_theta_min         2.34
_exptl_absorpt_coefficient_mu    0.065
_exptl_absorpt_correction_T_max  0.99
_exptl_absorpt_correction_T_min  0.82
_exptl_absorpt_correction_type   multi-scan
_exptl_absorpt_process_details   'Bruker SADABS, Version 2008/1'
_exptl_crystal_colour            orange
_exptl_crystal_density_diffrn    1.157
_exptl_crystal_description       'rectangular block'
_exptl_crystal_F_000             1344
_exptl_crystal_size_max          0.48
_exptl_crystal_size_mid          0.20
_exptl_crystal_size_min          0.16
_refine_diff_density_max         0.258
_refine_diff_density_min         -0.176
_refine_ls_extinction_method     none
_refine_ls_goodness_of_fit_ref   1.037
_refine_ls_hydrogen_treatment    constr
_refine_ls_matrix_type           full
_refine_ls_number_parameters     217
_refine_ls_number_reflns         4227
_refine_ls_number_restraints     0
_refine_ls_restrained_S_all      1.037
_refine_ls_R_factor_all          0.0611
_refine_ls_R_factor_gt           0.0467
_refine_ls_shift/su_max          0.000
_refine_ls_shift/su_mean         0.000
_refine_ls_structure_factor_coef Fsqd
_refine_ls_weighting_details
'calc w=1/[\s^2^(Fo^2^)+(0.0484P)^2^+2.9993P] where P=(Fo^2^+2Fc^2^)/3'
_refine_ls_weighting_scheme      calc
_refine_ls_wR_factor_gt          0.1124
_refine_ls_wR_factor_ref         0.1216
_reflns_number_gt                3391
_reflns_number_total             4227
_reflns_threshold_expression     >2sigma(I)
_cod_data_source_file            jo301101x_si_003_4.cif
_cod_data_source_block           compound_5
_cod_database_code               4027338
loop_
_symmetry_equiv_pos_as_xyz
'x, y, z'
'-x, y, -z+1/2'
'x+1/2, y+1/2, z'
'-x+1/2, y+1/2, -z+1/2'
'-x, -y, -z'
'x, -y, z-1/2'
'-x+1/2, -y+1/2, -z'
'x+1/2, -y+1/2, z-1/2'
loop_
_atom_site_type_symbol
_atom_site_label
_atom_site_fract_x
_atom_site_fract_y
_atom_site_fract_z
_atom_site_U_iso_or_equiv
_atom_site_adp_type
_atom_site_calc_flag
_atom_site_refinement_flags
_atom_site_occupancy
C C1 0.06368(6) 0.9303(2) 0.18319(5) 0.0253(2) Uani d . 1
C C2 0.08933(6) 0.9225(2) 0.23020(5) 0.0267(2) Uani d . 1
H H2 0.0798 1.0184 0.2565 0.032 Uiso calc R 1
C C3 0.13430(6) 0.7441(2) 0.23495(5) 0.0262(2) Uani d . 1
C C4 0.13449(6) 0.6416(2) 0.18998(5) 0.0267(2) Uani d . 1
H H4 0.1579 0.5161 0.183 0.032 Uiso calc R 1
C C5 0.09293(6) 0.7551(2) 0.15415(5) 0.0256(2) Uani d . 1
C C6 0.08693(6) 0.7238(2) 0.10444(5) 0.0278(2) Uani d . 1
H H6 0.0615 0.8235 0.0857 0.033 Uiso calc R 1
C C7 0.01449(6) 1.0797(2) 0.16529(5) 0.0250(2) Uani d . 1
C C8 -0.03219(6) 1.0200(2) 0.12979(5) 0.0283(2) Uani d . 1
H H8 -0.0318 0.8791 0.1152 0.034 Uiso calc R 1
C C9 -0.07881(6) 1.1644(2) 0.11581(5) 0.0315(2) Uani d . 1
H H9 -0.1093 1.123 0.0909 0.038 Uiso calc R 1
C C10 -0.08143(6) 1.3692(2) 0.13775(5) 0.0321(2) Uani d . 1
H H10 -0.1139 1.4663 0.1285 0.039 Uiso calc R 1
C C11 -0.03607(6) 1.4299(2) 0.17330(5) 0.0298(2) Uani d . 1
H H11 -0.0376 1.5689 0.1887 0.036 Uiso calc R 1
C C12 0.01150(6) 1.2884(2) 0.18642(5) 0.0266(2) Uani d . 1
H H12 0.0428 1.3335 0.2103 0.032 Uiso calc R 1
C C13 0.17354(6) 0.6991(2) 0.27999(5) 0.0272(2) Uani d . 1
C C14 0.18353(6) 0.8581(2) 0.31694(5) 0.0303(2) Uani d . 1
H H14 0.1636 0.995 0.3131 0.036 Uiso calc R 1
C C15 0.22200(6) 0.8195(2) 0.35913(5) 0.0352(2) Uani d . 1
H H15 0.2284 0.9298 0.3837 0.042 Uiso calc R 1
C C16 0.25112(6) 0.6200(2) 0.36533(6) 0.0367(2) Uani d . 1
H H16 0.2775 0.5931 0.3941 0.044 Uiso calc R 1
C C17 0.24137(6) 0.4604(2) 0.32922(6) 0.0373(4) Uani d . 1
H H17 0.2611 0.3234 0.3335 0.045 Uiso calc R 1
C C18 0.20340(6) 0.4974(2) 0.28705(5) 0.0329(2) Uani d . 1
H H18 0.1974 0.3861 0.2626 0.039 Uiso calc R 1
C C19 0.11647(6) 0.5466(2) 0.07547(5) 0.0274(2) Uani d . 1
H H19 0.1416 0.4542 0.0996 0.033 Uiso calc R 1
C C20 0.06692(6) 0.4041(2) 0.04973(6) 0.0364(2) Uani d . 1
H H20A 0.0419 0.3373 0.0754 0.044 Uiso calc R 1
H H20B 0.0395 0.4958 0.0278 0.044 Uiso calc R 1
C C21 0.09441(8) 0.2256(2) 0.01859(6) 0.0415(4) Uani d . 1
H H21A 0.1178 0.1238 0.0411 0.05 Uiso calc R 1
H H21B 0.0609 0.1428 0.0009 0.05 Uiso calc R 1
C C22 0.13648(9) 0.3165(2) -0.01932(6) 0.0470(4) Uani d . 1
H H22A 0.1122 0.4032 -0.0445 0.056 Uiso calc R 1
H H22B 0.1559 0.1951 -0.0369 0.056 Uiso calc R 1
C C23 0.18594(9) 0.4589(2) 0.00572(6) 0.0529(5) Uani d . 1
H H23A 0.2105 0.5257 -0.0202 0.063 Uiso calc R 1
H H23B 0.2137 0.3678 0.0275 0.063 Uiso calc R 1
C C24 0.15842(8) 0.6386(2) 0.03721(6) 0.0467(4) Uani d . 1
H H24A 0.192 0.7215 0.0548 0.056 Uiso calc R 1
H H24B 0.1349 0.7403 0.0148 0.056 Uiso calc R 1
loop_
_atom_site_aniso_label
_atom_site_aniso_U_11
_atom_site_aniso_U_22
_atom_site_aniso_U_33
_atom_site_aniso_U_12
_atom_site_aniso_U_13
_atom_site_aniso_U_23
C1 0.0245(5) 0.0220(5) 0.0302(7) -0.0015(5) 0.0080(5) -0.0005(5)
C2 0.0274(7) 0.0248(5) 0.0287(5) 0.0023(5) 0.0082(5) -0.0015(5)
C3 0.0246(7) 0.0243(5) 0.0304(7) -0.0011(5) 0.0079(5) 0.0003(5)
C4 0.0246(7) 0.0236(5) 0.0324(7) 0.0007(5) 0.0055(5) -0.0017(5)
C5 0.0245(5) 0.0227(5) 0.0299(5) -0.0027(5) 0.0047(5) -0.0015(5)
C6 0.0273(7) 0.0251(5) 0.0312(7) -0.0003(5) 0.0039(5) -0.0001(5)
C7 0.0255(7) 0.0249(5) 0.0252(5) -0.0018(5) 0.0084(5) 0.0022(5)
C8 0.0288(7) 0.0269(5) 0.0298(7) -0.0020(5) 0.0061(5) 0.0000(5)
C9 0.0287(7) 0.0378(8) 0.0283(7) -0.0029(5) 0.0028(5) 0.0024(5)
C10 0.0315(7) 0.0336(7) 0.0319(7) 0.0062(5) 0.0088(5) 0.0079(5)
C11 0.0362(8) 0.0248(5) 0.0293(7) 0.0008(5) 0.0100(5) 0.0022(5)
C12 0.0299(7) 0.0258(5) 0.0246(5) -0.0024(5) 0.0064(5) 0.0012(5)
C13 0.0239(7) 0.0292(7) 0.0291(5) 0.0020(5) 0.0076(5) 0.0019(5)
C14 0.0313(7) 0.0287(7) 0.0313(7) 0.0026(5) 0.0046(5) 0.0019(5)
C15 0.0359(8) 0.0373(8) 0.0321(7) -0.0006(5) 0.0004(5) -0.0005(5)
C16 0.0290(7) 0.0457(9) 0.0355(8) 0.0045(5) 0.0004(5) 0.0060(7)
C17 0.0320(8) 0.0397(8) 0.0407(8) 0.0116(5) 0.0061(5) 0.0047(7)
C18 0.0328(7) 0.0318(7) 0.0346(7) 0.0057(5) 0.0070(5) -0.0015(5)
C19 0.0297(7) 0.0259(5) 0.0265(5) 0.0010(5) 0.0007(5) -0.0033(5)
C20 0.0350(8) 0.0359(8) 0.0382(8) -0.0054(5) 0.0010(5) -0.0056(5)
C21 0.0488(10) 0.0348(8) 0.0405(8) -0.0066(7) -0.0014(7) -0.0118(7)
C22 0.0737(11) 0.0390(9) 0.0289(7) 0.0014(8) 0.0085(8) -0.0073(7)
C23 0.0600(11) 0.0393(9) 0.0628(11) -0.0068(8) 0.0349(9) -0.0170(8)
C24 0.0525(10) 0.0328(8) 0.0574(10) -0.0107(7) 0.0279(8) -0.0141(7)
loop_
_atom_type_symbol
_atom_type_description
_atom_type_scat_dispersion_real
_atom_type_scat_dispersion_imag
_atom_type_scat_source
C C 0.0033 0.0016 'International Tables Vol C Tables 4.2.6.8 and 6.1.1.4'
H H 0.0000 0.0000 'International Tables Vol C Tables 4.2.6.8 and 6.1.1.4'
loop_
_geom_angle_atom_site_label_1
_geom_angle_atom_site_label_2
_geom_angle_atom_site_label_3
_geom_angle
C2 C1 C7 125.64(12)
C2 C1 C5 106.98(11)
C7 C1 C5 127.35(12)
C1 C2 C3 110.32(11)
C1 C2 H2 124.8
C3 C2 H2 124.8
C4 C3 C13 127.61(12)
C4 C3 C2 107.69(12)
C13 C3 C2 124.61(12)
C3 C4 C5 109.10(12)
C3 C4 H4 125.4
C5 C4 H4 125.4
C6 C5 C4 127.19(12)
C6 C5 C1 126.71(12)
C4 C5 C1 105.77(11)
C5 C6 C19 126.39(13)
C5 C6 H6 116.8
C19 C6 H6 116.8
C8 C7 C12 117.59(12)
C8 C7 C1 123.09(12)
C12 C7 C1 119.22(12)
C9 C8 C7 120.67(13)
C9 C8 H8 119.7
C7 C8 H8 119.7
C8 C9 C10 120.80(13)
C8 C9 H9 119.6
C10 C9 H9 119.6
C11 C10 C9 119.25(13)
C11 C10 H10 120.4
C9 C10 H10 120.4
C12 C11 C10 120.15(13)
C12 C11 H11 119.9
C10 C11 H11 119.9
C11 C12 C7 121.49(13)
C11 C12 H12 119.3
C7 C12 H12 119.3
C14 C13 C18 117.88(13)
C14 C13 C3 120.69(12)
C18 C13 C3 121.42(12)
C15 C14 C13 121.22(13)
C15 C14 H14 119.4
C13 C14 H14 119.4
C16 C15 C14 120.03(14)
C16 C15 H15 120.0
C14 C15 H15 120.0
C17 C16 C15 119.42(14)
C17 C16 H16 120.3
C15 C16 H16 120.3
C18 C17 C16 121.00(14)
C18 C17 H17 119.5
C16 C17 H17 119.5
C17 C18 C13 120.45(14)
C17 C18 H18 119.8
C13 C18 H18 119.8
C6 C19 C24 111.69(11)
C6 C19 C20 109.54(11)
C24 C19 C20 110.39(12)
C6 C19 H19 108.4
C24 C19 H19 108.4
C20 C19 H19 108.4
C21 C20 C19 111.67(13)
C21 C20 H20A 109.3
C19 C20 H20A 109.3
C21 C20 H20B 109.3
C19 C20 H20B 109.3
H20A C20 H20B 107.9
C22 C21 C20 111.94(13)
C22 C21 H21A 109.2
C20 C21 H21A 109.2
C22 C21 H21B 109.2
C20 C21 H21B 109.2
H21A C21 H21B 107.9
C21 C22 C23 111.17(13)
C21 C22 H22A 109.4
C23 C22 H22A 109.4
C21 C22 H22B 109.4
C23 C22 H22B 109.4
H22A C22 H22B 108.0
C22 C23 C24 111.54(15)
C22 C23 H23A 109.3
C24 C23 H23A 109.3
C22 C23 H23B 109.3
C24 C23 H23B 109.3
H23A C23 H23B 108.0
C19 C24 C23 111.82(13)
C19 C24 H24A 109.3
C23 C24 H24A 109.3
C19 C24 H24B 109.3
C23 C24 H24B 109.3
H24A C24 H24B 107.9
loop_
_geom_bond_atom_site_label_1
_geom_bond_atom_site_label_2
_geom_bond_distance
C1 C2 1.349(2)
C1 C7 1.4732(18)
C1 C5 1.4921(18)
C2 C3 1.4729(18)
C2 H2 0.95
C3 C4 1.3583(18)
C3 C13 1.466(2)
C4 C5 1.460(2)
C4 H4 0.95
C5 C6 1.3428(18)
C6 C19 1.5031(18)
C6 H6 0.95
C7 C8 1.403(2)
C7 C12 1.4049(18)
C8 C9 1.387(2)
C8 H8 0.95
C9 C10 1.392(2)
C9 H9 0.95
C10 C11 1.386(2)
C10 H10 0.95
C11 C12 1.385(2)
C11 H11 0.95
C12 H12 0.95
C13 C14 1.398(2)
C13 C18 1.409(2)
C14 C15 1.390(2)
C14 H14 0.95
C15 C16 1.387(2)
C15 H15 0.95
C16 C17 1.385(2)
C16 H16 0.95
C17 C18 1.382(2)
C17 H17 0.95
C18 H18 0.95
C19 C24 1.520(2)
C19 C20 1.526(2)
C19 H19 1.0
C20 C21 1.521(2)
C20 H20A 0.99
C20 H20B 0.99
C21 C22 1.513(2)
C21 H21A 0.99
C21 H21B 0.99
C22 C23 1.517(3)
C22 H22A 0.99
C22 H22B 0.99
C23 C24 1.532(2)
C23 H23A 0.99
C23 H23B 0.99
C24 H24A 0.99
C24 H24B 0.99
loop_
_geom_torsion_atom_site_label_1
_geom_torsion_atom_site_label_2
_geom_torsion_atom_site_label_3
_geom_torsion_atom_site_label_4
_geom_torsion
C7 C1 C2 C3 176.56(12)
C5 C1 C2 C3 -1.38(14)
C1 C2 C3 C4 -1.08(15)
C1 C2 C3 C13 175.63(12)
C13 C3 C4 C5 -173.45(12)
C2 C3 C4 C5 3.12(15)
C3 C4 C5 C6 169.76(13)
C3 C4 C5 C1 -3.91(14)
C2 C1 C5 C6 -170.53(13)
C7 C1 C5 C6 11.6(2)
C2 C1 C5 C4 3.18(14)
C7 C1 C5 C4 -174.72(12)
C4 C5 C6 C19 7.7(2)
C1 C5 C6 C19 -179.88(12)
C2 C1 C7 C8 -144.19(14)
C5 C1 C7 C8 33.3(2)
C2 C1 C7 C12 32.1(2)
C5 C1 C7 C12 -150.39(12)
C12 C7 C8 C9 0.99(18)
C1 C7 C8 C9 177.32(12)
C7 C8 C9 C10 -2.0(2)
C8 C9 C10 C11 1.2(2)
C9 C10 C11 C12 0.5(2)
C10 C11 C12 C7 -1.5(2)
C8 C7 C12 C11 0.76(18)
C1 C7 C12 C11 -175.72(12)
C4 C3 C13 C14 157.79(14)
C2 C3 C13 C14 -18.3(2)
C4 C3 C13 C18 -20.8(2)
C2 C3 C13 C18 163.16(13)
C18 C13 C14 C15 0.5(2)
C3 C13 C14 C15 -178.18(13)
C13 C14 C15 C16 -0.3(2)
C14 C15 C16 C17 -0.1(2)
C15 C16 C17 C18 0.4(2)
C16 C17 C18 C13 -0.2(2)
C14 C13 C18 C17 -0.2(2)
C3 C13 C18 C17 178.42(13)
C5 C6 C19 C24 -119.20(16)
C5 C6 C19 C20 118.17(15)
C6 C19 C20 C21 178.36(12)
C24 C19 C20 C21 54.96(17)
C19 C20 C21 C22 -55.42(18)
C20 C21 C22 C23 54.7(2)
C21 C22 C23 C24 -54.3(2)
C6 C19 C24 C23 -176.97(15)
C20 C19 C24 C23 -54.8(2)
C22 C23 C24 C19 55.0(2)
loop_
_cod_related_entry_id
_cod_related_entry_database
_cod_related_entry_code
1 ChemSpider 30659509
