#------------------------------------------------------------------------------
#$Date: 2017-10-13 03:48:21 +0300 (Fri, 13 Oct 2017) $
#$Revision: 201957 $
#$URL: file:///home/coder/svn-repositories/cod/cif/2/01/87/2018718.cif $
#------------------------------------------------------------------------------
#
# This file is available in the Crystallography Open Database (COD),
# http://www.crystallography.net/. The original data for this entry
# were provided by IUCr Journals, http://journals.iucr.org/.
#
# The file may be used within the scientific community so long as
# proper attribution is given to the journal article from which the
# data were obtained.
#
data_2018718
loop_
_publ_author_name
'Gomes, Ligia R.'
'Howie, R. Alan'
'Low, John Nicolson'
'Rodrigues, Ana S. M. C.'
'Santos, Lu\'is M. N. B. F.'
_publ_section_title
;
 A low-temperature polymorph of <i>m</i>-quinquephenyl
;
_journal_coeditor_code           LN3153
_journal_issue                   12
_journal_name_full               'Acta Crystallographica Section C'
_journal_page_first              o492
_journal_page_last               o497
_journal_paper_doi               10.1107/S0108270112046392
_journal_volume                  68
_journal_year                    2012
_chemical_formula_iupac          'C30 H22'
_chemical_formula_moiety         'C30 H22'
_chemical_formula_sum            'C30 H22'
_chemical_formula_weight         382.48
_chemical_name_common            <i>m</i>-quinquephenyl
_chemical_name_systematic
;
1,1':3',1'':3'',1''':3''',1''''-quinquephenyl
;
_space_group_IT_number           14
_symmetry_cell_setting           monoclinic
_symmetry_space_group_name_Hall  '-P 2ybc'
_symmetry_space_group_name_H-M   'P 1 21/c 1'
_atom_sites_solution_hydrogens   geom
_atom_sites_solution_primary     direct
_atom_sites_solution_secondary   difmap
_audit_creation_method           SHELXL97
_cell_angle_alpha                90.00
_cell_angle_beta                 99.274(4)
_cell_angle_gamma                90.00
_cell_formula_units_Z            8
_cell_length_a                   13.5740(7)
_cell_length_b                   7.1809(4)
_cell_length_c                   42.833(2)
_cell_measurement_reflns_used    28626
_cell_measurement_temperature    150(2)
_cell_measurement_theta_max      26.53
_cell_measurement_theta_min      2.88
_cell_volume                     4120.5(4)
_computing_cell_refinement       'APEX2 and SAINT (Bruker, 2004)'
_computing_data_collection       'APEX2 (Bruker, 2004)'
_computing_data_reduction        'SAINT (Bruker, 2004)'
_computing_molecular_graphics    'PLATON (Spek, 2009)'
_computing_publication_material  'SHELXL97 (Sheldrick, 2008)'
_computing_structure_refinement
;
SHELXL97 (Sheldrick, 2008) and OSCAIL (McArdle <i>et al.</i>,
2004)
;
_computing_structure_solution    'SHELXS97 (Sheldrick, 2008)'
_diffrn_ambient_temperature      150(2)
_diffrn_detector_area_resol_mean 8.33
_diffrn_measured_fraction_theta_full 0.995
_diffrn_measured_fraction_theta_max 0.990
_diffrn_measurement_device_type  'Bruker APEXII CCD area-detector'
_diffrn_measurement_method       \w
_diffrn_radiation_monochromator  graphite
_diffrn_radiation_source         'fine-focus sealed tube'
_diffrn_radiation_type           MoK\a
_diffrn_radiation_wavelength     0.71073
_diffrn_reflns_av_R_equivalents  0.0416
_diffrn_reflns_av_sigmaI/netI    0.0447
_diffrn_reflns_limit_h_max       16
_diffrn_reflns_limit_h_min       -17
_diffrn_reflns_limit_k_max       9
_diffrn_reflns_limit_k_min       -9
_diffrn_reflns_limit_l_max       15
_diffrn_reflns_limit_l_min       -53
_diffrn_reflns_number            28626
_diffrn_reflns_theta_full        25.00
_diffrn_reflns_theta_max         26.53
_diffrn_reflns_theta_min         2.88
_exptl_absorpt_coefficient_mu    0.070
_exptl_absorpt_correction_T_max  0.9986
_exptl_absorpt_correction_T_min  0.9794
_exptl_absorpt_correction_type   multi-scan
_exptl_absorpt_process_details   '(SADABS; Bruker, 2004)'
_exptl_crystal_colour            colourless
_exptl_crystal_density_diffrn    1.233
_exptl_crystal_density_method    'not measured'
_exptl_crystal_description       needle
_exptl_crystal_F_000             1616
_exptl_crystal_size_max          0.30
_exptl_crystal_size_mid          0.08
_exptl_crystal_size_min          0.02
_refine_diff_density_max         0.222
_refine_diff_density_min         -0.274
_refine_ls_extinction_method     none
_refine_ls_goodness_of_fit_ref   1.023
_refine_ls_hydrogen_treatment    constr
_refine_ls_matrix_type           full
_refine_ls_number_parameters     543
_refine_ls_number_reflns         8453
_refine_ls_number_restraints     0
_refine_ls_restrained_S_all      1.023
_refine_ls_R_factor_all          0.0746
_refine_ls_R_factor_gt           0.0490
_refine_ls_shift/su_max          0.001
_refine_ls_shift/su_mean         0.000
_refine_ls_structure_factor_coef Fsqd
_refine_ls_weighting_details
'calc w = 1/[\s^2^(Fo^2^)+(0.0988P)^2^] where P=(Fo^2^+2Fc^2^)/3'
_refine_ls_weighting_scheme      calc
_refine_ls_wR_factor_gt          0.1290
_refine_ls_wR_factor_ref         0.1546
_reflns_number_gt                6424
_reflns_number_total             8455
_reflns_threshold_expression     I>2\s(I)
_iucr_refine_instructions_details
;
TITL F01303 - EXOR               New: P21/c
CELL  0.71073   13.5740    7.1809   42.8330    90.000    99.274    90.000
ZERR  8           0.0007    0.0004    0.0020     0.000     0.004     0.000
LATT   1
SYMM             - X ,    0.50000 + Y ,    0.50000 - Z
SFAC  C  H
UNIT    240  176
omit -2 0 -2
omit 2 0 -2
omit 0 0 -2
omit -2 0 0
omit 2 0 4
omit 1 0 2
temp -123
SIZE 0.30 0.08 0.02
L.S. 5
FMAP 2
PLAN -20
acta 50
BOND $H
CONF
merg 0
WGHT    0.098800
BASF   0.24576   0.04916
FVAR       3.57306
C11A  1    0.426646    0.726304    0.152322    11.00000    0.03088    0.02374 =
         0.02839    0.00364    0.00648   -0.00150
C12A  1    0.519170    0.714950    0.171958    11.00000    0.03143    0.03749 =
         0.03251    0.00004    0.00423   -0.00103
AFIX  43
H12A  2    0.575318    0.669487    0.163625    11.00000   -1.20000
AFIX   0
C13A  1    0.530380    0.768808    0.203330    11.00000    0.04283    0.04430 =
         0.03312   -0.00038   -0.00112   -0.00403
AFIX  43
H13A  2    0.593695    0.758667    0.216407    11.00000   -1.20000
AFIX   0
C14A  1    0.449571    0.837442    0.215716    11.00000    0.05674    0.04254 =
         0.02717   -0.00106    0.00939   -0.00157
AFIX  43
H14A  2    0.457585    0.878536    0.237058    11.00000   -1.20000
AFIX   0
C15A  1    0.357180    0.845645    0.196769    11.00000    0.04843    0.03917 =
         0.03481    0.00643    0.01771    0.00799
AFIX  43
H15A  2    0.301096    0.889410    0.205324    11.00000   -1.20000
AFIX   0
C16A  1    0.345616    0.790766    0.165486    11.00000    0.03354    0.02967 =
         0.03422    0.00666    0.00642    0.00184
AFIX  43
H16A  2    0.281542    0.797049    0.152769    11.00000   -1.20000
AFIX   0
C21A  1    0.415786    0.674447    0.118251    11.00000    0.02485    0.01910 =
         0.03052    0.00340    0.00043    0.00182
C22A  1    0.492547    0.714167    0.101223    11.00000    0.02390    0.02398 =
         0.02899   -0.00008   -0.00019    0.00058
AFIX  43
H22A  2    0.550593    0.776114    0.111569    11.00000   -1.20000
AFIX   0
C23A  1    0.486626    0.665714    0.069508    11.00000    0.02773    0.02088 =
         0.02703    0.00132   -0.00136    0.00353
C24A  1    0.399958    0.578522    0.054295    11.00000    0.03363    0.02654 =
         0.02863   -0.00139   -0.00408    0.00088
AFIX  43
H24A  2    0.394122    0.545229    0.032609    11.00000   -1.20000
AFIX   0
C25A  1    0.322506    0.540608    0.070845    11.00000    0.02683    0.02685 =
         0.04048   -0.00002   -0.00485   -0.00131
AFIX  43
H25A  2    0.263639    0.481847    0.060362    11.00000   -1.20000
AFIX   0
C26A  1    0.330051    0.587329    0.102368    11.00000    0.02621    0.02478 =
         0.03530    0.00496    0.00213    0.00057
AFIX  43
H26A  2    0.276427    0.560021    0.113401    11.00000   -1.20000
AFIX   0
C31A  1    0.572689    0.703975    0.053037    11.00000    0.03454    0.02235 =
         0.02328   -0.00340    0.00137    0.00047
C32A  1    0.669029    0.696960    0.069985    11.00000    0.03402    0.02204 =
         0.01682    0.00035    0.00366    0.00171
AFIX  43
H32A  2    0.677662    0.662611    0.091673    11.00000   -1.20000
AFIX   0
C33A  1    0.753579    0.738076    0.056583    11.00000    0.03726    0.01993 =
         0.02215    0.00055    0.00804    0.00216
C34A  1    0.738976    0.785000    0.024369    11.00000    0.04450    0.02945 =
         0.02055   -0.00071    0.01072    0.00084
AFIX  43
H34A  2    0.794760    0.815157    0.014492    11.00000   -1.20000
AFIX   0
C35A  1    0.643904    0.787681    0.006874    11.00000    0.05336    0.03647 =
         0.01846    0.00088    0.00433    0.00109
AFIX  43
H35A  2    0.635225    0.816989   -0.015026    11.00000   -1.20000
AFIX   0
C36A  1    0.561470    0.748230    0.020888    11.00000    0.03817    0.03399 =
         0.02225    0.00052   -0.00461    0.00077
AFIX  43
H36A  2    0.496682    0.751214    0.008575    11.00000   -1.20000
AFIX   0
C41A  1    0.854651    0.733684    0.076020    11.00000    0.03286    0.01914 =
         0.02404    0.00321    0.00944    0.00047
C42A  1    0.868027    0.779628    0.108215    11.00000    0.03024    0.02239 =
         0.02487    0.00306    0.00885    0.00060
AFIX  43
H42A  2    0.811566    0.815190    0.117354    11.00000   -1.20000
AFIX   0
C43A  1    0.961521    0.774862    0.127284    11.00000    0.03097    0.02176 =
         0.02689    0.00324    0.00515   -0.00131
C44A  1    1.043632    0.725816    0.113424    11.00000    0.02536    0.03255 =
         0.03462    0.00186    0.00410   -0.00082
AFIX  43
H44A  2    1.108211    0.723797    0.125879    11.00000   -1.20000
AFIX   0
C45A  1    1.032278    0.679931    0.081693    11.00000    0.03225    0.03447 =
         0.03759    0.00112    0.01607    0.00290
AFIX  43
H45A  2    1.089028    0.646429    0.072536    11.00000   -1.20000
AFIX   0
C46A  1    0.939136    0.682492    0.063261    11.00000    0.04049    0.02770 =
         0.02782   -0.00013    0.01542   -0.00077
AFIX  43
H46A  2    0.932310    0.648950    0.041564    11.00000   -1.20000
AFIX   0
C51A  1    0.973325    0.821615    0.161498    11.00000    0.02681    0.02821 =
         0.03003    0.00146    0.00351   -0.00395
C52A  1    0.914035    0.956721    0.172798    11.00000    0.03256    0.03597 =
         0.02906   -0.00147    0.00201    0.00542
AFIX  43
H52A  2    0.864569    1.019638    0.158385    11.00000   -1.20000
AFIX   0
C53A  1    0.926153    1.000581    0.204705    11.00000    0.04339    0.04979 =
         0.03302   -0.01026    0.00551    0.00161
AFIX  43
H53A  2    0.885223    1.093026    0.211987    11.00000   -1.20000
AFIX   0
C54A  1    0.997921    0.909680    0.225980    11.00000    0.05185    0.05139 =
         0.02579   -0.00507    0.00096   -0.00682
AFIX  43
H54A  2    1.006168    0.939257    0.247865    11.00000   -1.20000
AFIX   0
C55A  1    1.057324    0.776088    0.215247    11.00000    0.03899    0.04433 =
         0.03233    0.00620   -0.00561   -0.00240
AFIX  43
H55A  2    1.106958    0.714290    0.229765    11.00000   -1.20000
AFIX   0
C56A  1    1.044895    0.731472    0.183288    11.00000    0.03328    0.03135 =
         0.03536    0.00211    0.00219   -0.00083
AFIX  43
H56A  2    1.085752    0.638230    0.176195    11.00000   -1.20000
AFIX   0
C11B  1    1.237153    0.232855    0.154394    11.00000    0.03234    0.02337 =
         0.03475    0.00814    0.00297   -0.00117
C12B  1    1.162263    0.221829    0.172977    11.00000    0.03563    0.03029 =
         0.03433    0.00183    0.00332    0.00298
AFIX  43
H12B  2    1.098101    0.177307    0.163913    11.00000   -1.20000
AFIX   0
C13B  1    1.179678    0.274652    0.204456    11.00000    0.05306    0.03900 =
         0.03281    0.00486    0.00490    0.00658
AFIX  43
H13B  2    1.127661    0.265856    0.216801    11.00000   -1.20000
AFIX   0
C14B  1    1.273233    0.340665    0.218090    11.00000    0.06895    0.03402 =
         0.03070    0.00146   -0.00962    0.00400
AFIX  43
H14B  2    1.284913    0.379171    0.239589    11.00000   -1.20000
AFIX   0
C15B  1    1.348766    0.349688    0.200137    11.00000    0.05127    0.03421 =
         0.04703    0.00934   -0.01200   -0.00556
AFIX  43
H15B  2    1.413046    0.392787    0.209380    11.00000   -1.20000
AFIX   0
C16B  1    1.331274    0.296299    0.168781    11.00000    0.03748    0.03219 =
         0.04332    0.01081   -0.00136   -0.00257
AFIX  43
H16B  2    1.384056    0.302661    0.156703    11.00000   -1.20000
AFIX   0
C21B  1    1.217493    0.178990    0.120440    11.00000    0.03076    0.02061 =
         0.03360    0.00652    0.00973   -0.00354
C22B  1    1.124107    0.214619    0.102389    11.00000    0.03233    0.02235 =
         0.02885    0.00201    0.01055   -0.00111
AFIX  43
H22B  2    1.074835    0.275788    0.112090    11.00000   -1.20000
AFIX   0
C23B  1    1.100680    0.163492    0.070607    11.00000    0.03528    0.02130 =
         0.02826    0.00113    0.01117   -0.00225
C24B  1    1.173841    0.075274    0.056601    11.00000    0.04603    0.02395 =
         0.03435    0.00082    0.01761   -0.00377
AFIX  43
H24B  2    1.159736    0.038870    0.035019    11.00000   -1.20000
AFIX   0
C25B  1    1.267468    0.040314    0.074109    11.00000    0.03928    0.02557 =
         0.04537    0.00660    0.02150    0.00425
AFIX  43
H25B  2    1.316862   -0.020052    0.064350    11.00000   -1.20000
AFIX   0
C26B  1    1.289584    0.092257    0.105521    11.00000    0.03017    0.02556 =
         0.04488    0.00721    0.01209    0.00164
AFIX  43
H26B  2    1.354218    0.068880    0.117062    11.00000   -1.20000
AFIX   0
C31B  1    0.999073    0.200882    0.053155    11.00000    0.04159    0.02012 =
         0.02495   -0.00067    0.00833   -0.00172
C32B  1    0.917389    0.193861    0.068895    11.00000    0.03591    0.02072 =
         0.01974    0.00183    0.00028   -0.00226
AFIX  43
H32B  2    0.927912    0.158243    0.090537    11.00000   -1.20000
AFIX   0
C33B  1    0.820841    0.236617    0.054410    11.00000    0.03677    0.01993 =
         0.02695   -0.00218   -0.00045   -0.00179
C34B  1    0.806373    0.286351    0.022399    11.00000    0.04779    0.03077 =
         0.02456   -0.00116   -0.00501   -0.00005
AFIX  43
H34B  2    0.741500    0.317789    0.011842    11.00000   -1.20000
AFIX   0
C35B  1    0.886319    0.289734    0.006166    11.00000    0.05987    0.03973 =
         0.02012   -0.00030    0.00226   -0.00012
AFIX  43
H35B  2    0.875394    0.320623   -0.015686    11.00000   -1.20000
AFIX   0
C36B  1    0.981399    0.249325    0.020972    11.00000    0.05228    0.03373 =
         0.02510   -0.00143    0.01128   -0.00077
AFIX  43
H36B  2    1.035418    0.254180    0.009385    11.00000   -1.20000
AFIX   0
C41B  1    0.737149    0.232895    0.072941    11.00000    0.03215    0.01858 =
         0.03124    0.00352   -0.00422    0.00190
C42B  1    0.754144    0.274795    0.105106    11.00000    0.02667    0.02263 =
         0.03130    0.00239    0.00057    0.00116
AFIX  43
H42B  2    0.819788    0.306830    0.114904    11.00000   -1.20000
AFIX   0
C43B  1    0.678024    0.271286    0.123402    11.00000    0.02926    0.02195 =
         0.03796    0.00329    0.00307    0.00097
C44B  1    0.582042    0.225414    0.108535    11.00000    0.02765    0.02725 =
         0.05789    0.00180    0.00740    0.00222
AFIX  43
H44B  2    0.528789    0.222516    0.120453    11.00000   -1.20000
AFIX   0
C45B  1    0.563770    0.184263    0.076717    11.00000    0.02610    0.03086 =
         0.05659   -0.00314   -0.00937   -0.00044
AFIX  43
H45B  2    0.497907    0.153805    0.066911    11.00000   -1.20000
AFIX   0
C46B  1    0.639644    0.186692    0.058952    11.00000    0.03299    0.02845 =
         0.03698   -0.00178   -0.00693    0.00283
AFIX  43
H46B  2    0.625879    0.156879    0.037074    11.00000   -1.20000
AFIX   0
C51B  1    0.698794    0.319769    0.157625    11.00000    0.02822    0.02876 =
         0.03812    0.00475    0.01089    0.00482
C52B  1    0.767212    0.457760    0.169029    11.00000    0.03261    0.03593 =
         0.03183    0.00353    0.00868    0.00232
AFIX  43
H52B  2    0.802149    0.521104    0.154696    11.00000   -1.20000
AFIX   0
C53B  1    0.785542    0.504873    0.200798    11.00000    0.04136    0.04768 =
         0.03579   -0.00295    0.00739    0.00224
AFIX  43
H53B  2    0.832145    0.600297    0.208030    11.00000   -1.20000
AFIX   0
C54B  1    0.735847    0.412680    0.221957    11.00000    0.05618    0.05255 =
         0.03468    0.00553    0.01494    0.01383
AFIX  43
H54B  2    0.747684    0.444923    0.243751    11.00000   -1.20000
AFIX   0
C55B  1    0.668628    0.272847    0.211100    11.00000    0.05689    0.04509 =
         0.04780    0.01166    0.02837    0.01132
AFIX  43
H55B  2    0.634668    0.208536    0.225579    11.00000   -1.20000
AFIX   0
C56B  1    0.650552    0.226102    0.179361    11.00000    0.04109    0.03513 =
         0.05008    0.00608    0.02158    0.00298
AFIX  43
H56B  2    0.604761    0.129104    0.172293    11.00000   -1.20000
HKLF 5
REM  F01303 - EXOR               New: P21/c
REM R1 =  0.0490 for   6423 Fo > 4sig(Fo)  and  0.0746 for all   8453 data
REM    543 parameters refined using      0 restraints
END
WGHT      0.0987      0.0000
REM Highest difference peak  0.222,  deepest hole -0.274,  1-sigma level  0.075
Q1    1   0.4042  1.4217  0.2491  11.00000  0.05    0.22
Q2    1   0.3556  0.8936  0.2477  11.00000  0.05    0.22
Q3    1   1.1745  0.3139  0.1637  11.00000  0.05    0.21
Q4    1   0.2591  1.3977  0.2507  11.00000  0.05    0.21
Q5    1   0.2472  1.0312  0.2512  11.00000  0.05    0.21
Q6    1   0.2386  1.2829  0.2444  11.00000  0.05    0.21
Q7    1   0.5383  0.1321  0.1586  11.00000  0.05    0.20
Q8    1   1.1367  0.9290  0.2108  11.00000  0.05    0.20
Q9    1   0.3072  0.9710  0.2562  11.00000  0.05    0.20
Q10   1   0.2795  0.9127  0.2381  11.00000  0.05    0.20
Q11   1   1.1633  0.2967  0.1880  11.00000  0.05    0.20
Q12   1   0.1397  1.4101  0.2437  11.00000  0.05    0.19
Q13   1   1.0442  0.1824  0.1512  11.00000  0.05    0.19
Q14   1   0.5617  0.2985  0.1642  11.00000  0.05    0.19
Q15   1   0.2083  1.0125  0.2438  11.00000  0.05    0.19
Q16   1   0.5843  0.2253  0.2152  11.00000  0.05    0.19
Q17   1   0.2507  1.0112  0.2198  11.00000  0.05    0.19
Q18   1   1.1115  0.7823  0.1580  11.00000  0.05    0.19
Q19   1   0.0001  0.4015  0.2028  11.00000  0.05    0.19
Q20   1   0.2455  1.5167  0.2603  11.00000  0.05    0.19
;
_cod_data_source_file            ln3153.cif
_cod_data_source_block           I
_cod_original_sg_symbol_H-M      'P 21/c'
_cod_database_code               2018718
_cod_database_fobs_code          2018718
loop_
_symmetry_equiv_pos_as_xyz
'x, y, z'
'-x, y+1/2, -z+1/2'
'-x, -y, -z'
'x, -y-1/2, z-1/2'
loop_
_atom_site_type_symbol
_atom_site_label
_atom_site_fract_x
_atom_site_fract_y
_atom_site_fract_z
_atom_site_U_iso_or_equiv
_atom_site_adp_type
_atom_site_calc_flag
_atom_site_refinement_flags
_atom_site_occupancy
_atom_site_symmetry_multiplicity
C C11A 0.42665(17) 0.7263(3) 0.15232(5) 0.0275(5) Uani d . 1 1
C C12A 0.51917(18) 0.7150(4) 0.17196(5) 0.0339(6) Uani d . 1 1
H H12A 0.5753 0.6695 0.1636 0.041 Uiso calc R 1 1
C C13A 0.5304(2) 0.7688(4) 0.20333(6) 0.0409(6) Uani d . 1 1
H H13A 0.5937 0.7587 0.2164 0.049 Uiso calc R 1 1
C C14A 0.4496(2) 0.8374(4) 0.21572(6) 0.0419(7) Uani d . 1 1
H H14A 0.4576 0.8785 0.2371 0.050 Uiso calc R 1 1
C C15A 0.3572(2) 0.8456(4) 0.19677(5) 0.0396(6) Uani d . 1 1
H H15A 0.3011 0.8894 0.2053 0.048 Uiso calc R 1 1
C C16A 0.34562(18) 0.7908(3) 0.16549(5) 0.0324(5) Uani d . 1 1
H H16A 0.2815 0.7970 0.1528 0.039 Uiso calc R 1 1
C C21A 0.41579(16) 0.6744(3) 0.11825(5) 0.0253(5) Uani d . 1 1
C C22A 0.49255(16) 0.7142(3) 0.10122(5) 0.0261(5) Uani d . 1 1
H H22A 0.5506 0.7761 0.1116 0.031 Uiso calc R 1 1
C C23A 0.48663(16) 0.6657(3) 0.06951(5) 0.0259(5) Uani d . 1 1
C C24A 0.39996(17) 0.5785(3) 0.05429(5) 0.0306(5) Uani d . 1 1
H H24A 0.3941 0.5452 0.0326 0.037 Uiso calc R 1 1
C C25A 0.32251(17) 0.5406(3) 0.07084(5) 0.0325(5) Uani d . 1 1
H H25A 0.2636 0.4818 0.0604 0.039 Uiso calc R 1 1
C C26A 0.33005(17) 0.5873(3) 0.10237(5) 0.0291(5) Uani d . 1 1
H H26A 0.2764 0.5600 0.1134 0.035 Uiso calc R 1 1
C C31A 0.57269(17) 0.7040(3) 0.05304(5) 0.0271(5) Uani d . 1 1
C C32A 0.66903(16) 0.6970(3) 0.06998(5) 0.0243(5) Uani d . 1 1
H H32A 0.6777 0.6626 0.0917 0.029 Uiso calc R 1 1
C C33A 0.75358(17) 0.7381(3) 0.05658(5) 0.0261(5) Uani d . 1 1
C C34A 0.73898(19) 0.7850(3) 0.02437(5) 0.0309(5) Uani d . 1 1
H H34A 0.7948 0.8152 0.0145 0.037 Uiso calc R 1 1
C C35A 0.6439(2) 0.7877(4) 0.00687(5) 0.0363(6) Uani d . 1 1
H H35A 0.6352 0.8170 -0.0150 0.044 Uiso calc R 1 1
C C36A 0.56147(18) 0.7482(4) 0.02089(5) 0.0325(6) Uani d . 1 1
H H36A 0.4967 0.7512 0.0086 0.039 Uiso calc R 1 1
C C41A 0.85465(17) 0.7337(3) 0.07602(5) 0.0248(5) Uani d . 1 1
C C42A 0.86803(17) 0.7796(3) 0.10822(5) 0.0254(5) Uani d . 1 1
H H42A 0.8116 0.8152 0.1174 0.030 Uiso calc R 1 1
C C43A 0.96152(17) 0.7749(3) 0.12728(5) 0.0265(5) Uani d . 1 1
C C44A 1.04363(17) 0.7258(3) 0.11342(5) 0.0309(5) Uani d . 1 1
H H44A 1.1082 0.7238 0.1259 0.037 Uiso calc R 1 1
C C45A 1.03228(18) 0.6799(4) 0.08169(5) 0.0336(6) Uani d . 1 1
H H45A 1.0890 0.6464 0.0725 0.040 Uiso calc R 1 1
C C46A 0.93914(18) 0.6825(3) 0.06326(5) 0.0309(5) Uani d . 1 1
H H46A 0.9323 0.6489 0.0416 0.037 Uiso calc R 1 1
C C51A 0.97332(17) 0.8216(3) 0.16150(5) 0.0285(5) Uani d . 1 1
C C52A 0.91403(18) 0.9567(4) 0.17280(5) 0.0329(5) Uani d . 1 1
H H52A 0.8646 1.0196 0.1584 0.039 Uiso calc R 1 1
C C53A 0.9262(2) 1.0006(4) 0.20470(5) 0.0421(7) Uani d . 1 1
H H53A 0.8852 1.0930 0.2120 0.051 Uiso calc R 1 1
C C54A 0.9979(2) 0.9097(4) 0.22598(6) 0.0436(7) Uani d . 1 1
H H54A 1.0062 0.9393 0.2479 0.052 Uiso calc R 1 1
C C55A 1.0573(2) 0.7761(4) 0.21525(5) 0.0398(6) Uani d . 1 1
H H55A 1.1070 0.7143 0.2298 0.048 Uiso calc R 1 1
C C56A 1.04489(18) 0.7315(4) 0.18329(5) 0.0337(6) Uani d . 1 1
H H56A 1.0858 0.6382 0.1762 0.040 Uiso calc R 1 1
C C11B 1.23715(18) 0.2329(3) 0.15439(5) 0.0304(5) Uani d . 1 1
C C12B 1.16226(19) 0.2218(3) 0.17298(5) 0.0337(6) Uani d . 1 1
H H12B 1.0981 0.1773 0.1639 0.040 Uiso calc R 1 1
C C13B 1.1797(2) 0.2747(4) 0.20446(5) 0.0418(7) Uani d . 1 1
H H13B 1.1277 0.2659 0.2168 0.050 Uiso calc R 1 1
C C14B 1.2732(2) 0.3407(4) 0.21809(6) 0.0465(7) Uani d . 1 1
H H14B 1.2849 0.3792 0.2396 0.056 Uiso calc R 1 1
C C15B 1.3488(2) 0.3497(4) 0.20014(6) 0.0464(7) Uani d . 1 1
H H15B 1.4130 0.3928 0.2094 0.056 Uiso calc R 1 1
C C16B 1.33127(19) 0.2963(4) 0.16878(6) 0.0385(6) Uani d . 1 1
H H16B 1.3841 0.3027 0.1567 0.046 Uiso calc R 1 1
C C21B 1.21749(17) 0.1790(3) 0.12044(5) 0.0278(5) Uani d . 1 1
C C22B 1.12411(17) 0.2146(3) 0.10239(5) 0.0272(5) Uani d . 1 1
H H22B 1.0748 0.2758 0.1121 0.033 Uiso calc R 1 1
C C23B 1.10068(17) 0.1635(3) 0.07061(5) 0.0276(5) Uani d . 1 1
C C24B 1.17384(19) 0.0753(3) 0.05660(5) 0.0335(6) Uani d . 1 1
H H24B 1.1597 0.0389 0.0350 0.040 Uiso calc R 1 1
C C25B 1.26747(19) 0.0403(4) 0.07411(6) 0.0351(6) Uani d . 1 1
H H25B 1.3169 -0.0201 0.0643 0.042 Uiso calc R 1 1
C C26B 1.28958(18) 0.0923(3) 0.10552(5) 0.0329(5) Uani d . 1 1
H H26B 1.3542 0.0689 0.1171 0.039 Uiso calc R 1 1
C C31B 0.99907(18) 0.2009(3) 0.05315(5) 0.0286(5) Uani d . 1 1
C C32B 0.91739(17) 0.1939(3) 0.06889(5) 0.0259(5) Uani d . 1 1
H H32B 0.9279 0.1582 0.0905 0.031 Uiso calc R 1 1
C C33B 0.82084(18) 0.2366(3) 0.05441(5) 0.0285(5) Uani d . 1 1
C C34B 0.8064(2) 0.2864(3) 0.02240(5) 0.0356(6) Uani d . 1 1
H H34B 0.7415 0.3178 0.0118 0.043 Uiso calc R 1 1
C C35B 0.8863(2) 0.2897(4) 0.00617(5) 0.0404(7) Uani d . 1 1
H H35B 0.8754 0.3206 -0.0157 0.048 Uiso calc R 1 1
C C36B 0.9814(2) 0.2493(4) 0.02097(5) 0.0365(6) Uani d . 1 1
H H36B 1.0354 0.2542 0.0094 0.044 Uiso calc R 1 1
C C41B 0.73715(17) 0.2329(3) 0.07294(5) 0.0283(5) Uani d . 1 1
C C42B 0.75414(17) 0.2748(3) 0.10511(5) 0.0273(5) Uani d . 1 1
H H42B 0.8198 0.3068 0.1149 0.033 Uiso calc R 1 1
C C43B 0.67802(17) 0.2713(3) 0.12340(5) 0.0300(5) Uani d . 1 1
C C44B 0.58204(19) 0.2254(4) 0.10854(6) 0.0375(6) Uani d . 1 1
H H44B 0.5288 0.2225 0.1205 0.045 Uiso calc R 1 1
C C45B 0.56377(19) 0.1843(4) 0.07672(6) 0.0396(6) Uani d . 1 1
H H45B 0.4979 0.1538 0.0669 0.048 Uiso calc R 1 1
C C46B 0.63964(18) 0.1867(4) 0.05895(5) 0.0342(6) Uani d . 1 1
H H46B 0.6259 0.1569 0.0371 0.041 Uiso calc R 1 1
C C51B 0.69879(17) 0.3198(4) 0.15763(5) 0.0311(5) Uani d . 1 1
C C52B 0.76721(18) 0.4578(4) 0.16903(5) 0.0331(6) Uani d . 1 1
H H52B 0.8021 0.5211 0.1547 0.040 Uiso calc R 1 1
C C53B 0.7855(2) 0.5049(4) 0.20080(5) 0.0415(6) Uani d . 1 1
H H53B 0.8321 0.6003 0.2080 0.050 Uiso calc R 1 1
C C54B 0.7358(2) 0.4127(4) 0.22196(6) 0.0470(7) Uani d . 1 1
H H54B 0.7477 0.4449 0.2438 0.056 Uiso calc R 1 1
C C55B 0.6686(2) 0.2728(4) 0.21110(6) 0.0477(7) Uani d . 1 1
H H55B 0.6347 0.2085 0.2256 0.057 Uiso calc R 1 1
C C56B 0.6506(2) 0.2261(4) 0.17936(6) 0.0405(6) Uani d . 1 1
H H56B 0.6048 0.1291 0.1723 0.049 Uiso calc R 1 1
loop_
_atom_site_aniso_label
_atom_site_aniso_U_11
_atom_site_aniso_U_22
_atom_site_aniso_U_33
_atom_site_aniso_U_12
_atom_site_aniso_U_13
_atom_site_aniso_U_23
C11A 0.0309(12) 0.0237(13) 0.0284(11) -0.0015(10) 0.0065(9) 0.0036(9)
C12A 0.0314(13) 0.0375(15) 0.0325(12) -0.0010(11) 0.0042(10) 0.0000(11)
C13A 0.0428(15) 0.0443(17) 0.0331(13) -0.0040(13) -0.0011(11) -0.0004(11)
C14A 0.0567(17) 0.0425(17) 0.0272(12) -0.0016(14) 0.0094(12) -0.0011(11)
C15A 0.0484(15) 0.0392(16) 0.0348(13) 0.0080(13) 0.0177(11) 0.0064(11)
C16A 0.0335(13) 0.0297(14) 0.0342(12) 0.0018(11) 0.0064(10) 0.0067(10)
C21A 0.0249(11) 0.0191(12) 0.0305(11) 0.0018(9) 0.0004(9) 0.0034(9)
C22A 0.0239(11) 0.0240(13) 0.0290(11) 0.0006(10) -0.0002(9) -0.0001(9)
C23A 0.0277(12) 0.0209(12) 0.0270(11) 0.0035(10) -0.0014(9) 0.0013(9)
C24A 0.0336(13) 0.0265(13) 0.0286(11) 0.0009(10) -0.0041(9) -0.0014(10)
C25A 0.0268(12) 0.0269(13) 0.0405(13) -0.0013(10) -0.0048(10) 0.0000(10)
C26A 0.0262(11) 0.0248(13) 0.0353(12) 0.0006(10) 0.0021(9) 0.0050(10)
C31A 0.0345(12) 0.0223(12) 0.0233(10) 0.0005(10) 0.0014(9) -0.0034(9)
C32A 0.0340(12) 0.0220(12) 0.0168(9) 0.0017(10) 0.0037(8) 0.0003(8)
C33A 0.0373(13) 0.0199(12) 0.0221(10) 0.0022(10) 0.0080(9) 0.0005(8)
C34A 0.0445(14) 0.0295(14) 0.0206(10) 0.0008(11) 0.0107(10) -0.0007(9)
C35A 0.0534(15) 0.0365(16) 0.0185(11) 0.0011(13) 0.0043(10) 0.0009(10)
C36A 0.0382(13) 0.0340(14) 0.0222(11) 0.0008(11) -0.0046(9) 0.0005(9)
C41A 0.0329(12) 0.0191(12) 0.0240(10) 0.0005(10) 0.0094(9) 0.0032(8)
C42A 0.0302(11) 0.0224(12) 0.0249(10) 0.0006(10) 0.0088(9) 0.0031(9)
C43A 0.0310(12) 0.0218(12) 0.0269(11) -0.0013(10) 0.0052(9) 0.0032(9)
C44A 0.0254(11) 0.0325(14) 0.0346(12) -0.0008(11) 0.0041(9) 0.0019(10)
C45A 0.0322(13) 0.0345(14) 0.0376(13) 0.0029(11) 0.0161(10) 0.0011(11)
C46A 0.0405(14) 0.0277(13) 0.0278(11) -0.0008(11) 0.0154(10) -0.0001(10)
C51A 0.0268(11) 0.0282(13) 0.0300(11) -0.0040(10) 0.0035(9) 0.0015(10)
C52A 0.0326(13) 0.0360(15) 0.0291(12) 0.0054(11) 0.0020(9) -0.0015(10)
C53A 0.0434(15) 0.0498(18) 0.0330(13) 0.0016(13) 0.0055(11) -0.0103(12)
C54A 0.0519(16) 0.0514(18) 0.0258(12) -0.0068(14) 0.0010(11) -0.0051(11)
C55A 0.0390(14) 0.0443(17) 0.0323(12) -0.0024(13) -0.0056(11) 0.0062(11)
C56A 0.0333(13) 0.0313(14) 0.0354(12) -0.0008(11) 0.0022(10) 0.0021(10)
C11B 0.0323(12) 0.0234(13) 0.0348(12) -0.0012(10) 0.0030(10) 0.0081(10)
C12B 0.0356(13) 0.0303(14) 0.0343(12) 0.0030(11) 0.0033(10) 0.0018(10)
C13B 0.0531(16) 0.0390(17) 0.0328(13) 0.0066(13) 0.0049(12) 0.0049(11)
C14B 0.069(2) 0.0340(16) 0.0307(13) 0.0040(14) -0.0096(13) 0.0015(11)
C15B 0.0513(17) 0.0342(16) 0.0470(15) -0.0056(14) -0.0120(12) 0.0093(12)
C16B 0.0375(14) 0.0322(15) 0.0433(14) -0.0026(12) -0.0014(11) 0.0108(11)
C21B 0.0308(12) 0.0206(12) 0.0336(12) -0.0035(10) 0.0097(9) 0.0065(9)
C22B 0.0323(12) 0.0224(13) 0.0288(11) -0.0011(10) 0.0106(9) 0.0020(9)
C23B 0.0353(13) 0.0213(12) 0.0283(11) -0.0022(10) 0.0112(9) 0.0011(9)
C24B 0.0460(14) 0.0239(13) 0.0343(12) -0.0038(11) 0.0176(11) 0.0008(10)
C25B 0.0393(14) 0.0256(14) 0.0454(14) 0.0043(11) 0.0215(11) 0.0066(11)
C26B 0.0302(12) 0.0256(14) 0.0449(14) 0.0016(11) 0.0121(10) 0.0072(10)
C31B 0.0416(13) 0.0201(12) 0.0249(11) -0.0017(10) 0.0083(9) -0.0007(9)
C32B 0.0359(12) 0.0207(12) 0.0197(10) -0.0023(10) 0.0003(9) 0.0018(8)
C33B 0.0368(13) 0.0199(12) 0.0269(11) -0.0018(10) -0.0004(9) -0.0022(9)
C34B 0.0478(15) 0.0308(15) 0.0246(11) -0.0001(12) -0.0050(10) -0.0012(10)
C35B 0.0599(17) 0.0397(17) 0.0201(11) -0.0001(13) 0.0023(11) -0.0003(10)
C36B 0.0523(16) 0.0337(15) 0.0251(11) -0.0008(12) 0.0113(11) -0.0014(10)
C41B 0.0321(12) 0.0186(12) 0.0312(11) 0.0019(10) -0.0042(9) 0.0035(9)
C42B 0.0267(11) 0.0226(13) 0.0313(11) 0.0012(10) 0.0006(9) 0.0024(9)
C43B 0.0293(12) 0.0219(13) 0.0380(12) 0.0010(10) 0.0031(10) 0.0033(10)
C44B 0.0276(12) 0.0273(14) 0.0579(16) 0.0022(11) 0.0074(11) 0.0018(11)
C45B 0.0261(13) 0.0309(15) 0.0566(16) -0.0004(11) -0.0094(11) -0.0031(12)
C46B 0.0330(13) 0.0285(14) 0.0370(13) 0.0028(11) -0.0069(10) -0.0018(10)
C51B 0.0282(12) 0.0288(14) 0.0381(12) 0.0048(11) 0.0109(10) 0.0047(10)
C52B 0.0326(13) 0.0359(15) 0.0318(12) 0.0023(11) 0.0087(10) 0.0035(10)
C53B 0.0414(15) 0.0477(17) 0.0358(13) 0.0022(13) 0.0074(11) -0.0030(11)
C54B 0.0562(17) 0.0526(19) 0.0347(13) 0.0138(15) 0.0149(12) 0.0055(13)
C55B 0.0569(18) 0.0451(18) 0.0478(15) 0.0113(15) 0.0284(14) 0.0117(13)
C56B 0.0411(15) 0.0351(16) 0.0501(15) 0.0030(12) 0.0216(12) 0.0061(12)
loop_
_atom_type_symbol
_atom_type_description
_atom_type_scat_dispersion_real
_atom_type_scat_dispersion_imag
_atom_type_scat_source
C C 0.0033 0.0016 'International Tables Vol C Tables 4.2.6.8 and 6.1.1.4'
H H 0.0000 0.0000 'International Tables Vol C Tables 4.2.6.8 and 6.1.1.4'
loop_
_geom_angle_atom_site_label_1
_geom_angle_atom_site_label_2
_geom_angle_atom_site_label_3
_geom_angle
C16A C11A C12A 117.9(2)
C16A C11A C21A 121.3(2)
C12A C11A C21A 120.8(2)
C13A C12A C11A 121.1(2)
C13A C12A H12A 119.5
C11A C12A H12A 119.5
C12A C13A C14A 120.1(2)
C12A C13A H13A 119.9
C14A C13A H13A 119.9
C15A C14A C13A 119.4(2)
C15A C14A H14A 120.3
C13A C14A H14A 120.3
C16A C15A C14A 120.6(2)
C16A C15A H15A 119.7
C14A C15A H15A 119.7
C15A C16A C11A 120.9(2)
C15A C16A H16A 119.5
C11A C16A H16A 119.5
C22A C21A C26A 118.09(19)
C22A C21A C11A 119.79(19)
C26A C21A C11A 122.12(19)
C23A C22A C21A 121.9(2)
C23A C22A H22A 119.0
C21A C22A H22A 119.0
C22A C23A C24A 118.6(2)
C22A C23A C31A 119.44(19)
C24A C23A C31A 121.94(19)
C25A C24A C23A 120.0(2)
C25A C24A H24A 120.0
C23A C24A H24A 120.0
C26A C25A C24A 120.7(2)
C26A C25A H25A 119.7
C24A C25A H25A 119.7
C25A C26A C21A 120.7(2)
C25A C26A H26A 119.7
C21A C26A H26A 119.7
C32A C31A C36A 117.8(2)
C32A C31A C23A 119.41(17)
C36A C31A C23A 122.8(2)
C31A C32A C33A 122.98(18)
C31A C32A H32A 118.5
C33A C32A H32A 118.5
C32A C33A C34A 117.4(2)
C32A C33A C41A 120.76(17)
C34A C33A C41A 121.83(19)
C35A C34A C33A 120.5(2)
C35A C34A H34A 119.8
C33A C34A H34A 119.8
C36A C35A C34A 120.77(19)
C36A C35A H35A 119.6
C34A C35A H35A 119.6
C35A C36A C31A 120.5(2)
C35A C36A H36A 119.8
C31A C36A H36A 119.8
C46A C41A C42A 117.6(2)
C46A C41A C33A 121.90(18)
C42A C41A C33A 120.53(18)
C43A C42A C41A 122.1(2)
C43A C42A H42A 118.9
C41A C42A H42A 118.9
C44A C43A C42A 118.21(19)
C44A C43A C51A 120.8(2)
C42A C43A C51A 121.01(19)
C45A C44A C43A 120.7(2)
C45A C44A H44A 119.7
C43A C44A H44A 119.7
C46A C45A C44A 120.4(2)
C46A C45A H45A 119.8
C44A C45A H45A 119.8
C45A C46A C41A 121.0(2)
C45A C46A H46A 119.5
C41A C46A H46A 119.5
C56A C51A C52A 118.0(2)
C56A C51A C43A 120.5(2)
C52A C51A C43A 121.5(2)
C53A C52A C51A 121.1(2)
C53A C52A H52A 119.5
C51A C52A H52A 119.5
C54A C53A C52A 120.0(2)
C54A C53A H53A 120.0
C52A C53A H53A 120.0
C55A C54A C53A 119.7(2)
C55A C54A H54A 120.1
C53A C54A H54A 120.1
C54A C55A C56A 120.3(2)
C54A C55A H55A 119.9
C56A C55A H55A 119.9
C55A C56A C51A 120.9(2)
C55A C56A H56A 119.5
C51A C56A H56A 119.5
C12B C11B C16B 117.7(2)
C12B C11B C21B 120.8(2)
C16B C11B C21B 121.4(2)
C13B C12B C11B 121.1(2)
C13B C12B H12B 119.5
C11B C12B H12B 119.5
C12B C13B C14B 120.2(3)
C12B C13B H13B 119.9
C14B C13B H13B 119.9
C15B C14B C13B 119.5(2)
C15B C14B H14B 120.3
C13B C14B H14B 120.3
C14B C15B C16B 120.2(3)
C14B C15B H15B 119.9
C16B C15B H15B 119.9
C15B C16B C11B 121.3(2)
C15B C16B H16B 119.3
C11B C16B H16B 119.3
C22B C21B C26B 117.9(2)
C22B C21B C11B 119.8(2)
C26B C21B C11B 122.3(2)
C23B C22B C21B 122.3(2)
C23B C22B H22B 118.8
C21B C22B H22B 118.8
C24B C23B C22B 118.3(2)
C24B C23B C31B 122.3(2)
C22B C23B C31B 119.40(19)
C25B C24B C23B 120.2(2)
C25B C24B H24B 119.9
C23B C24B H24B 119.9
C26B C25B C24B 120.8(2)
C26B C25B H25B 119.6
C24B C25B H25B 119.6
C25B C26B C21B 120.5(2)
C25B C26B H26B 119.8
C21B C26B H26B 119.8
C32B C31B C36B 117.5(2)
C32B C31B C23B 119.94(18)
C36B C31B C23B 122.5(2)
C31B C32B C33B 122.97(19)
C31B C32B H32B 118.5
C33B C32B H32B 118.5
C32B C33B C34B 117.8(2)
C32B C33B C41B 120.25(18)
C34B C33B C41B 121.9(2)
C35B C34B C33B 120.0(2)
C35B C34B H34B 120.0
C33B C34B H34B 120.0
C36B C35B C34B 121.3(2)
C36B C35B H35B 119.3
C34B C35B H35B 119.3
C35B C36B C31B 120.3(2)
C35B C36B H36B 119.9
C31B C36B H36B 119.9
C42B C41B C46B 117.9(2)
C42B C41B C33B 120.3(2)
C46B C41B C33B 121.73(19)
C41B C42B C43B 122.2(2)
C41B C42B H42B 118.9
C43B C42B H42B 118.9
C42B C43B C44B 118.0(2)
C42B C43B C51B 120.6(2)
C44B C43B C51B 121.3(2)
C45B C44B C43B 120.6(2)
C45B C44B H44B 119.7
C43B C44B H44B 119.7
C46B C45B C44B 120.9(2)
C46B C45B H45B 119.6
C44B C45B H45B 119.6
C45B C46B C41B 120.4(2)
C45B C46B H46B 119.8
C41B C46B H46B 119.8
C52B C51B C56B 117.9(2)
C52B C51B C43B 121.5(2)
C56B C51B C43B 120.7(2)
C53B C52B C51B 121.5(2)
C53B C52B H52B 119.2
C51B C52B H52B 119.2
C54B C53B C52B 119.8(3)
C54B C53B H53B 120.1
C52B C53B H53B 120.1
C53B C54B C55B 119.4(2)
C53B C54B H54B 120.3
C55B C54B H54B 120.3
C56B C55B C54B 120.6(2)
C56B C55B H55B 119.7
C54B C55B H55B 119.7
C55B C56B C51B 120.7(3)
C55B C56B H56B 119.6
C51B C56B H56B 119.6
loop_
_geom_bond_atom_site_label_1
_geom_bond_atom_site_label_2
_geom_bond_distance
C11A C16A 1.394(3)
C11A C12A 1.397(3)
C11A C21A 1.490(3)
C12A C13A 1.383(3)
C12A H12A 0.9500
C13A C14A 1.384(4)
C13A H13A 0.9500
C14A C15A 1.381(4)
C14A H14A 0.9500
C15A C16A 1.381(3)
C15A H15A 0.9500
C16A H16A 0.9500
C21A C22A 1.394(3)
C21A C26A 1.398(3)
C22A C23A 1.392(3)
C22A H22A 0.9500
C23A C24A 1.398(3)
C23A C31A 1.484(3)
C24A C25A 1.386(3)
C24A H24A 0.9500
C25A C26A 1.379(3)
C25A H25A 0.9500
C26A H26A 0.9500
C31A C32A 1.391(3)
C31A C36A 1.397(3)
C32A C33A 1.395(3)
C32A H32A 0.9500
C33A C34A 1.403(3)
C33A C41A 1.486(3)
C34A C35A 1.384(3)
C34A H34A 0.9500
C35A C36A 1.382(3)
C35A H35A 0.9500
C36A H36A 0.9500
C41A C46A 1.397(3)
C41A C42A 1.401(3)
C42A C43A 1.395(3)
C42A H42A 0.9500
C43A C44A 1.390(3)
C43A C51A 1.487(3)
C44A C45A 1.383(3)
C44A H44A 0.9500
C45A C46A 1.379(3)
C45A H45A 0.9500
C46A H46A 0.9500
C51A C56A 1.393(3)
C51A C52A 1.396(3)
C52A C53A 1.386(3)
C52A H52A 0.9500
C53A C54A 1.385(4)
C53A H53A 0.9500
C54A C55A 1.379(4)
C54A H54A 0.9500
C55A C56A 1.389(3)
C55A H55A 0.9500
C56A H56A 0.9500
C11B C12B 1.391(3)
C11B C16B 1.402(3)
C11B C21B 1.487(3)
C12B C13B 1.384(3)
C12B H12B 0.9500
C13B C14B 1.393(4)
C13B H13B 0.9500
C14B C15B 1.379(4)
C14B H14B 0.9500
C15B C16B 1.380(4)
C15B H15B 0.9500
C16B H16B 0.9500
C21B C22B 1.398(3)
C21B C26B 1.398(3)
C22B C23B 1.396(3)
C22B H22B 0.9500
C23B C24B 1.393(3)
C23B C31B 1.484(3)
C24B C25B 1.390(3)
C24B H24B 0.9500
C25B C26B 1.382(3)
C25B H25B 0.9500
C26B H26B 0.9500
C31B C32B 1.388(3)
C31B C36B 1.404(3)
C32B C33B 1.391(3)
C32B H32B 0.9500
C33B C34B 1.400(3)
C33B C41B 1.487(3)
C34B C35B 1.380(4)
C34B H34B 0.9500
C35B C36B 1.374(4)
C35B H35B 0.9500
C36B H36B 0.9500
C41B C42B 1.393(3)
C41B C46B 1.402(3)
C42B C43B 1.394(3)
C42B H42B 0.9500
C43B C44B 1.394(3)
C43B C51B 1.489(3)
C44B C45B 1.377(3)
C44B H44B 0.9500
C45B C46B 1.376(4)
C45B H45B 0.9500
C46B H46B 0.9500
C51B C52B 1.392(3)
C51B C56B 1.394(3)
C52B C53B 1.385(3)
C52B H52B 0.9500
C53B C54B 1.383(4)
C53B H53B 0.9500
C54B C55B 1.386(4)
C54B H54B 0.9500
C55B C56B 1.383(4)
C55B H55B 0.9500
C56B H56B 0.9500
loop_
_geom_torsion_atom_site_label_1
_geom_torsion_atom_site_label_2
_geom_torsion_atom_site_label_3
_geom_torsion_atom_site_label_4
_geom_torsion
C16A C11A C12A C13A -1.0(4)
C21A C11A C12A C13A 177.8(2)
C11A C12A C13A C14A -0.8(4)
C12A C13A C14A C15A 2.2(4)
C13A C14A C15A C16A -1.7(4)
C14A C15A C16A C11A -0.1(4)
C12A C11A C16A C15A 1.5(4)
C21A C11A C16A C15A -177.4(2)
C16A C11A C21A C22A 142.8(2)
C12A C11A C21A C22A -36.0(3)
C16A C11A C21A C26A -36.7(3)
C12A C11A C21A C26A 144.5(2)
C26A C21A C22A C23A -1.5(3)
C11A C21A C22A C23A 178.9(2)
C21A C22A C23A C24A 1.5(3)
C21A C22A C23A C31A -177.2(2)
C22A C23A C24A C25A -0.5(3)
C31A C23A C24A C25A 178.1(2)
C23A C24A C25A C26A -0.3(4)
C24A C25A C26A C21A 0.2(4)
C22A C21A C26A C25A 0.7(3)
C11A C21A C26A C25A -179.8(2)
C22A C23A C31A C32A 32.0(3)
C24A C23A C31A C32A -146.6(2)
C22A C23A C31A C36A -147.7(2)
C24A C23A C31A C36A 33.7(4)
C36A C31A C32A C33A 2.2(3)
C23A C31A C32A C33A -177.5(2)
C31A C32A C33A C34A -1.2(3)
C31A C32A C33A C41A 178.2(2)
C32A C33A C34A C35A -0.7(3)
C41A C33A C34A C35A 179.9(2)
C33A C34A C35A C36A 1.4(4)
C34A C35A C36A C31A -0.3(4)
C32A C31A C36A C35A -1.5(4)
C23A C31A C36A C35A 178.2(2)
C32A C33A C41A C46A 147.7(2)
C34A C33A C41A C46A -32.9(3)
C32A C33A C41A C42A -31.6(3)
C34A C33A C41A C42A 147.7(2)
C46A C41A C42A C43A -0.2(3)
C33A C41A C42A C43A 179.2(2)
C41A C42A C43A C44A 1.1(3)
C41A C42A C43A C51A -179.1(2)
C42A C43A C44A C45A -1.1(3)
C51A C43A C44A C45A 179.1(2)
C43A C44A C45A C46A 0.1(4)
C44A C45A C46A C41A 0.9(4)
C42A C41A C46A C45A -0.8(4)
C33A C41A C46A C45A 179.8(2)
C44A C43A C51A C56A -34.2(3)
C42A C43A C51A C56A 146.1(2)
C44A C43A C51A C52A 145.5(2)
C42A C43A C51A C52A -34.3(3)
C56A C51A C52A C53A 0.3(4)
C43A C51A C52A C53A -179.4(2)
C51A C52A C53A C54A -0.1(4)
C52A C53A C54A C55A 0.2(4)
C53A C54A C55A C56A -0.5(4)
C54A C55A C56A C51A 0.7(4)
C52A C51A C56A C55A -0.5(4)
C43A C51A C56A C55A 179.1(2)
C16B C11B C12B C13B 1.1(4)
C21B C11B C12B C13B -178.9(2)
C11B C12B C13B C14B 0.2(4)
C12B C13B C14B C15B -1.2(4)
C13B C14B C15B C16B 1.0(4)
C14B C15B C16B C11B 0.3(4)
C12B C11B C16B C15B -1.3(4)
C21B C11B C16B C15B 178.7(2)
C12B C11B C21B C22B 35.2(3)
C16B C11B C21B C22B -144.8(2)
C12B C11B C21B C26B -144.7(2)
C16B C11B C21B C26B 35.3(3)
C26B C21B C22B C23B 1.3(3)
C11B C21B C22B C23B -178.6(2)
C21B C22B C23B C24B -0.5(3)
C21B C22B C23B C31B 178.3(2)
C22B C23B C24B C25B -0.1(3)
C31B C23B C24B C25B -178.8(2)
C23B C24B C25B C26B -0.1(4)
C24B C25B C26B C21B 0.9(4)
C22B C21B C26B C25B -1.4(3)
C11B C21B C26B C25B 178.4(2)
C24B C23B C31B C32B 145.9(2)
C22B C23B C31B C32B -32.8(3)
C24B C23B C31B C36B -36.0(4)
C22B C23B C31B C36B 145.3(2)
C36B C31B C32B C33B -1.6(3)
C23B C31B C32B C33B 176.6(2)
C31B C32B C33B C34B 0.9(3)
C31B C32B C33B C41B -177.8(2)
C32B C33B C34B C35B 0.7(4)
C41B C33B C34B C35B 179.4(2)
C33B C34B C35B C36B -1.6(4)
C34B C35B C36B C31B 0.9(4)
C32B C31B C36B C35B 0.7(3)
C23B C31B C36B C35B -177.4(2)
C32B C33B C41B C42B 30.6(3)
C34B C33B C41B C42B -148.1(2)
C32B C33B C41B C46B -149.1(2)
C34B C33B C41B C46B 32.3(3)
C46B C41B C42B C43B 0.2(3)
C33B C41B C42B C43B -179.4(2)
C41B C42B C43B C44B -0.5(4)
C41B C42B C43B C51B -179.1(2)
C42B C43B C44B C45B 0.3(4)
C51B C43B C44B C45B 178.8(2)
C43B C44B C45B C46B 0.3(4)
C44B C45B C46B C41B -0.6(4)
C42B C41B C46B C45B 0.3(4)
C33B C41B C46B C45B 179.9(2)
C42B C43B C51B C52B 35.9(3)
C44B C43B C51B C52B -142.6(3)
C42B C43B C51B C56B -143.4(2)
C44B C43B C51B C56B 38.1(3)
C56B C51B C52B C53B -1.6(4)
C43B C51B C52B C53B 179.1(2)
C51B C52B C53B C54B 0.6(4)
C52B C53B C54B C55B 0.5(4)
C53B C54B C55B C56B -0.4(4)
C54B C55B C56B C51B -0.6(4)
C52B C51B C56B C55B 1.6(4)
C43B C51B C56B C55B -179.0(2)
loop_
_cod_related_entry_id
_cod_related_entry_database
_cod_related_entry_code
1 ChemSpider 77170
