#------------------------------------------------------------------------------
#$Date: 2016-02-18 17:37:37 +0200 (Thu, 18 Feb 2016) $
#$Revision: 176729 $
#$URL: svn://www.crystallography.net/cod/cif/1/51/18/1511805.cif $
#------------------------------------------------------------------------------
#
# This file is available in the Crystallography Open Database (COD),
# http://www.crystallography.net/
#
# All data on this site have been placed in the public domain by the
# contributors.
#
data_1511805
loop_
_publ_author_name
'Podsiad\/lo, Marcin'
'Olejniczak, Anna'
'Katrusiak, Andrzej'
_publ_section_title
;
 Why Propane?
;
_journal_issue                   9
_journal_name_full               'The Journal of Physical Chemistry C'
_journal_page_first              4759
_journal_paper_doi               10.1021/jp311747m
_journal_volume                  117
_journal_year                    2013
_chemical_formula_moiety         'C3 H8'
_chemical_formula_sum            'C3 H8'
_chemical_formula_weight         44.09
_chemical_melting_point          86
_chemical_name_common            propane
_chemical_name_systematic
; 
propane
;
_space_group_IT_number           14
_symmetry_cell_setting           monoclinic
_symmetry_space_group_name_Hall  '-P 2yn'
_symmetry_space_group_name_H-M   'P 1 21/n 1'
_atom_sites_solution_hydrogens   geom
_atom_sites_solution_primary     direct
_atom_sites_solution_secondary   difmap
_audit_creation_method           SHELXL-97
_cell_angle_alpha                90.00
_cell_angle_beta                 90.84(6)
_cell_angle_gamma                90.00
_cell_formula_units_Z            4
_cell_length_a                   3.762(2)
_cell_length_b                   11.781(6)
_cell_length_c                   6.281(7)
_cell_measurement_reflns_used    737
_cell_measurement_temperature    295(2)
_cell_measurement_theta_max      27.67
_cell_measurement_theta_min      3.46
_cell_volume                     278.3(4)
_computing_cell_refinement       'CrysAlisRED (Oxford Diffraction, 2004)'
_computing_data_collection       'CrysAlisCCD (Oxford Diffraction, 2004)'
_computing_data_reduction
'CrysAlisRED (Oxford Diffraction, 2004); REDSHABS (Katrusiak, A.  2003)'
_computing_molecular_graphics    'SHELXTL (Sheldrick, 1990)'
_computing_publication_material  'SHELXL--97 (Sheldrick, 1997)'
_computing_structure_refinement  'SHELXL--97 (Sheldrick, 1997)'
_computing_structure_solution    'SHELXS--97 (Sheldrick, 1997)'
_diffrn_ambient_environment      'diamond-anvil cell'
_diffrn_ambient_pressure         4490000
_diffrn_ambient_temperature      295(2)
_diffrn_measured_fraction_theta_full 0.261
_diffrn_measured_fraction_theta_max 0.261
_diffrn_measurement_device_type  'KM-4 CCD'
_diffrn_measurement_method       '\f- and \w-scans'
_diffrn_radiation_monochromator  graphite
_diffrn_radiation_source         'fine-focus sealed tube'
_diffrn_radiation_type           MoK\a
_diffrn_radiation_wavelength     0.71073
_diffrn_reflns_av_R_equivalents  0.0741
_diffrn_reflns_av_sigmaI/netI    0.0366
_diffrn_reflns_limit_h_max       4
_diffrn_reflns_limit_h_min       -4
_diffrn_reflns_limit_k_max       14
_diffrn_reflns_limit_k_min       -14
_diffrn_reflns_limit_l_max       3
_diffrn_reflns_limit_l_min       -3
_diffrn_reflns_number            1203
_diffrn_reflns_theta_full        27.67
_diffrn_reflns_theta_max         27.67
_diffrn_reflns_theta_min         3.46
_diffrn_standards_decay_%        0
_diffrn_standards_interval_count 0
_diffrn_standards_number         0
_exptl_absorpt_coefficient_mu    0.057
_exptl_absorpt_correction_T_max  0.92
_exptl_absorpt_correction_T_min  0.63
_exptl_absorpt_correction_type   analytical
_exptl_absorpt_process_details
; 
 Correction for absorption of the diamond-anvil cell and the sample 
 were made using program REDSHABS (Katrusiak, A. (2003) REDSHABS. Adam
 Mickiewicz University Pozna\'n; Katrusiak, A. (2004) Z. Kristallogr.
 219, 461-467).
;
_exptl_crystal_colour            colourless
_exptl_crystal_density_diffrn    1.052
_exptl_crystal_density_method    'not measured'
_exptl_crystal_description       cylinder
_exptl_crystal_F_000             104
_exptl_crystal_size_max          0.42
_exptl_crystal_size_mid          0.41
_exptl_crystal_size_min          0.20
_refine_diff_density_max         0.097
_refine_diff_density_min         -0.092
_refine_diff_density_rms         0.028
_refine_ls_extinction_coef       0.26(4)
_refine_ls_extinction_expression Fc^*^=kFc[1+0.001xFc^2^\l^3^/sin(2\q)]^-1/4^
_refine_ls_extinction_method     SHELXL
_refine_ls_goodness_of_fit_ref   1.142
_refine_ls_hydrogen_treatment    constr
_refine_ls_matrix_type           full
_refine_ls_number_parameters     29
_refine_ls_number_reflns         168
_refine_ls_number_restraints     0
_refine_ls_restrained_S_all      1.142
_refine_ls_R_factor_all          0.0802
_refine_ls_R_factor_gt           0.0720
_refine_ls_shift/su_max          0.000
_refine_ls_shift/su_mean         0.000
_refine_ls_structure_factor_coef Fsqd
_refine_ls_weighting_details
'calc w=1/[\s^2^(Fo^2^)+(0.0000P)^2^+0.4371P] where P=(Fo^2^+2Fc^2^)/3'
_refine_ls_weighting_scheme      calc
_refine_ls_wR_factor_gt          0.1111
_refine_ls_wR_factor_ref         0.1142
_reflns_number_gt                153
_reflns_number_total             168
_reflns_threshold_expression     >2sigma(I)
_cod_data_source_file            jp311747m_si_002.cif
_cod_data_source_block           4pro_4.49GPa
_cod_original_cell_volume        278.4(4)
_cod_original_sg_symbol_H-M      'P 21/n'
_cod_database_code               1511805
loop_
_symmetry_equiv_pos_as_xyz
'x, y, z'
'-x+1/2, y+1/2, -z+1/2'
'-x, -y, -z'
'x-1/2, -y-1/2, z-1/2'
loop_
_atom_site_label
_atom_site_type_symbol
_atom_site_fract_x
_atom_site_fract_y
_atom_site_fract_z
_atom_site_U_iso_or_equiv
_atom_site_adp_type
_atom_site_occupancy
_atom_site_symmetry_multiplicity
_atom_site_calc_flag
_atom_site_refinement_flags
C1 C 0.2113(17) 0.9506(4) 0.208(2) 0.046(8) Uani 1 1 d .
H1 H -0.0403 0.9461 0.1821 0.069 Uiso 1 1 calc R
H2 H 0.3353 0.9245 0.0852 0.069 Uiso 1 1 calc R
H3 H 0.2763 1.0279 0.2377 0.069 Uiso 1 1 calc R
C2 C 0.3113(16) 0.8761(3) 0.4004(18) 0.058(9) Uani 1 1 d .
H4 H 0.1816 0.9013 0.5241 0.069 Uiso 1 1 calc R
H5 H 0.5634 0.8837 0.4318 0.069 Uiso 1 1 calc R
C3 C 0.2233(14) 0.7512(3) 0.3544(16) 0.032(5) Uani 1 1 d .
H6 H -0.0276 0.7433 0.3285 0.048 Uiso 1 1 calc R
H8 H 0.2924 0.7056 0.4747 0.048 Uiso 1 1 calc R
H7 H 0.3501 0.7266 0.2312 0.048 Uiso 1 1 calc R
loop_
_atom_site_aniso_label
_atom_site_aniso_U_11
_atom_site_aniso_U_22
_atom_site_aniso_U_33
_atom_site_aniso_U_23
_atom_site_aniso_U_13
_atom_site_aniso_U_12
C1 0.052(5) 0.030(4) 0.06(2) 0.001(3) 0.016(10) 0.003(2)
C2 0.050(5) 0.028(4) 0.10(3) 0.003(4) 0.023(10) -0.003(2)
C3 0.040(4) 0.031(3) 0.025(16) 0.000(3) 0.001(7) 0.000(2)
loop_
_atom_type_symbol
_atom_type_description
_atom_type_scat_dispersion_real
_atom_type_scat_dispersion_imag
_atom_type_scat_source
C C 0.0033 0.0016 'International Tables Vol C Tables 4.2.6.8 and 6.1.1.4'
H H 0.0000 0.0000 'International Tables Vol C Tables 4.2.6.8 and 6.1.1.4'
loop_
_geom_angle_atom_site_label_1
_geom_angle_atom_site_label_2
_geom_angle_atom_site_label_3
_geom_angle
C1 C2 C3 110.6(9)
loop_
_geom_bond_atom_site_label_1
_geom_bond_atom_site_label_2
_geom_bond_distance
C1 C2 1.534(14)
C2 C3 1.534(7)
loop_
_refln_index_h
_refln_index_k
_refln_index_l
_refln_F_squared_calc
_refln_F_squared_meas
_refln_F_squared_sigma
_refln_observed_status
1 1 0 0.18 0.80 0.10 o
2 1 0 2.79 1.38 0.16 o
0 2 0 15.65 17.21 1.03 o
1 2 0 525.23 524.21 8.19 o
2 2 0 2.55 1.37 0.16 o
1 3 0 38.09 37.10 1.03 o
2 3 0 3.04 2.24 0.21 o
0 4 0 57.82 63.57 1.11 o
1 4 0 185.49 190.60 5.80 o
2 4 0 15.89 11.72 0.27 o
3 4 0 7.81 10.10 0.42 o
1 5 0 15.15 20.44 1.16 o
2 5 0 41.97 46.44 1.52 o
3 5 0 6.37 2.40 0.55 o
0 6 0 312.49 297.59 6.91 o
1 6 0 4.58 5.39 0.47 o
2 6 0 41.69 43.40 0.97 o
3 6 0 0.68 0.83 0.35 o
1 7 0 14.91 19.47 1.18 o
2 7 0 5.58 8.04 1.09 o
3 7 0 11.01 8.81 1.83 o
1 8 0 6.96 5.42 0.86 o
2 8 0 16.41 14.75 1.43 o
3 8 0 0.77 0.54 1.17 o
1 9 0 7.73 12.80 0.86 o
2 9 0 0.00 1.61 0.67 o
3 9 0 7.89 8.70 1.67 o
2 10 0 30.89 28.50 1.42 o
3 10 0 1.51 1.00 0.48 o
2 11 0 8.50 7.82 0.93 o
3 11 0 0.01 0.40 0.37 o
-3 0 1 105.21 110.39 8.29 o
-1 0 1 1973.33 1975.08 14.33 o
-3 1 1 15.29 18.08 0.67 o
-2 1 1 3.16 1.44 0.12 o
-1 1 1 370.08 369.60 1.84 o
-3 2 1 0.88 0.76 0.22 o
-2 2 1 84.30 88.01 1.13 o
-1 2 1 8.95 8.68 0.28 o
0 2 1 515.19 511.64 5.38 o
-3 3 1 7.35 9.51 0.75 o
-2 3 1 0.13 0.64 0.13 o
-1 3 1 33.43 28.23 0.62 o
0 3 1 161.03 161.47 2.52 o
-4 4 1 2.26 1.32 0.57 o
-3 4 1 0.21 0.66 0.29 o
-2 4 1 23.24 20.80 0.98 o
-1 4 1 8.35 7.73 0.29 o
0 4 1 238.36 255.86 3.47 o
1 4 1 182.87 174.00 1.50 o
-4 5 1 0.63 0.87 0.43 o
-3 5 1 27.73 33.01 0.89 o
-2 5 1 0.58 0.79 0.24 o
-1 5 1 25.00 25.52 0.72 o
0 5 1 94.81 107.79 0.83 o
1 5 1 55.57 57.75 3.99 o
-4 6 1 0.09 0.48 0.33 o
-3 6 1 4.84 5.72 0.59 o
-2 6 1 0.54 3.59 1.33 o
-1 6 1 52.32 50.98 0.67 o
0 6 1 3.80 4.80 0.22 o
1 6 1 95.95 100.09 2.82 o
2 6 1 14.47 13.24 1.31 o
-4 7 1 2.59 1.34 0.41 o
-3 7 1 2.36 1.97 0.39 o
-2 7 1 0.32 1.80 0.52 o
-1 7 1 55.66 52.73 1.15 o
0 7 1 45.30 36.55 0.72 o
1 7 1 107.18 112.47 1.01 o
2 7 1 22.78 23.35 0.83 o
-4 8 1 0.38 0.87 0.74 o
-3 8 1 4.75 5.66 0.84 o
-1 8 1 18.09 14.28 1.55 o
0 8 1 13.99 14.35 0.52 o
1 8 1 7.19 11.85 0.93 o
2 8 1 0.84 0.99 0.34 o
-1 9 1 28.01 24.04 1.40 o
0 9 1 29.83 26.92 1.01 o
1 9 1 16.51 19.18 0.71 o
2 9 1 19.07 16.24 3.81 o
0 10 1 6.34 8.32 0.66 o
1 10 1 54.78 53.54 1.04 o
2 10 1 0.01 1.77 0.80 o
0 11 1 1.43 2.51 0.66 o
1 11 1 3.75 3.83 0.55 o
2 11 1 0.00 1.04 0.60 o
1 12 1 0.00 0.46 0.60 o
2 12 1 1.00 1.05 0.43 o
2 13 1 0.54 1.21 0.84 o
-4 0 2 10.54 11.14 2.14 o
-2 0 2 62.69 63.42 0.69 o
-4 1 2 11.19 11.74 2.81 o
-3 1 2 5.83 6.12 0.34 o
-2 1 2 98.78 98.38 2.93 o
-4 2 2 7.79 7.56 1.60 o
-3 2 2 24.06 18.50 0.88 o
-2 2 2 39.19 33.18 1.56 o
-4 3 2 0.74 1.08 0.43 o
-3 3 2 2.34 3.62 0.32 o
-2 3 2 5.39 8.30 1.28 o
-1 3 2 70.21 74.04 2.54 o
-4 4 2 5.83 8.50 2.12 o
-3 4 2 8.76 8.28 0.96 o
-2 4 2 0.64 1.44 0.25 o
-1 4 2 38.25 37.47 2.28 o
-4 5 2 6.60 6.97 1.66 o
-3 5 2 3.46 1.43 0.40 o
-2 5 2 3.42 2.60 0.30 o
-1 5 2 25.92 20.38 0.51 o
0 5 2 2.65 2.47 0.71 o
-3 6 2 0.39 0.79 0.44 o
-2 6 2 0.03 1.86 0.62 o
-1 6 2 33.06 33.73 0.67 o
0 6 2 12.53 8.84 1.10 o
-2 7 2 45.68 39.51 0.80 o
-1 7 2 20.20 20.47 0.67 o
0 7 2 205.82 195.32 1.11 o
-2 8 2 2.04 4.50 0.80 o
-1 8 2 9.95 13.63 0.55 o
0 8 2 12.50 13.29 0.64 o
1 8 2 5.02 3.91 0.87 o
-2 9 2 28.36 28.65 4.66 o
-1 9 2 22.22 20.25 0.81 o
0 9 2 56.87 62.65 1.05 o
1 9 2 26.26 25.20 6.37 o
-1 10 2 0.31 0.54 0.62 o
0 10 2 32.58 34.63 0.81 o
1 10 2 4.51 3.68 1.68 o
-1 11 2 3.17 3.38 0.51 o
0 11 2 0.31 0.80 0.39 o
1 11 2 0.14 1.41 0.35 o
-1 12 2 3.58 2.24 0.68 o
0 12 2 0.22 0.50 1.48 o
1 12 2 1.49 1.26 0.35 o
0 13 2 5.28 6.45 0.59 o
1 13 2 0.01 1.11 0.41 o
1 14 2 0.01 2.24 0.68 o
-4 1 3 3.52 3.70 1.12 o
-3 1 3 21.57 20.56 5.09 o
-4 2 3 3.35 5.35 1.24 o
-3 2 3 35.49 31.99 6.91 o
-4 3 3 1.54 1.13 0.55 o
-3 3 3 0.01 0.39 0.40 o
-4 4 3 2.91 4.56 1.22 o
-3 4 3 1.68 1.74 0.36 o
-2 4 3 14.56 16.17 2.64 o
-4 5 3 2.11 0.98 0.82 o
-3 5 3 0.02 1.54 1.53 o
-2 5 3 5.06 6.08 0.69 o
-3 6 3 3.04 1.34 0.74 o
-2 6 3 28.18 33.65 3.66 o
-3 7 3 15.03 23.45 1.72 o
-2 7 3 3.96 4.81 0.84 o
-1 7 3 70.06 70.65 2.22 o
-3 8 3 17.40 16.94 3.00 o
-2 8 3 4.71 4.56 0.63 o
-1 8 3 72.45 68.05 17.14 o
-3 9 3 7.77 4.54 1.57 o
-2 9 3 8.90 10.50 1.69 o
-1 9 3 21.15 20.06 4.45 o
-2 10 3 1.59 2.99 0.87 o
-1 10 3 1.62 1.02 0.41 o
-2 11 3 1.02 4.80 0.96 o
-1 11 3 1.46 2.93 0.80 o
-2 12 3 1.80 2.34 1.11 o
-1 12 3 2.85 1.64 0.48 o
-1 13 3 4.16 7.35 1.54 o
-1 14 3 0.61 0.76 0.72 o
