#------------------------------------------------------------------------------
#$Date: 2016-02-18 17:37:37 +0200 (Thu, 18 Feb 2016) $
#$Revision: 176729 $
#$URL: svn://www.crystallography.net/cod/cif/1/51/18/1511807.cif $
#------------------------------------------------------------------------------
#
# This file is available in the Crystallography Open Database (COD),
# http://www.crystallography.net/
#
# All data on this site have been placed in the public domain by the
# contributors.
#
data_1511807
loop_
_publ_author_name
'Podsiad\/lo, Marcin'
'Olejniczak, Anna'
'Katrusiak, Andrzej'
_publ_section_title
;
 Why Propane?
;
_journal_issue                   9
_journal_name_full               'The Journal of Physical Chemistry C'
_journal_page_first              4759
_journal_paper_doi               10.1021/jp311747m
_journal_volume                  117
_journal_year                    2013
_chemical_formula_moiety         'C3 H8'
_chemical_formula_sum            'C3 H8'
_chemical_formula_weight         44.09
_chemical_melting_point          86
_chemical_name_common            propane
_chemical_name_systematic
; 
propane
;
_space_group_IT_number           14
_symmetry_cell_setting           monoclinic
_symmetry_space_group_name_Hall  '-P 2yn'
_symmetry_space_group_name_H-M   'P 1 21/n 1'
_atom_sites_solution_hydrogens   geom
_atom_sites_solution_primary     direct
_atom_sites_solution_secondary   difmap
_audit_creation_method           SHELXL-97
_cell_angle_alpha                90.00
_cell_angle_beta                 90.48(7)
_cell_angle_gamma                90.00
_cell_formula_units_Z            4
_cell_length_a                   3.689(3)
_cell_length_b                   11.651(9)
_cell_length_c                   6.151(5)
_cell_measurement_reflns_used    663
_cell_measurement_temperature    295(2)
_cell_measurement_theta_max      27.76
_cell_measurement_theta_min      3.50
_cell_volume                     264.4(4)
_computing_cell_refinement       'CrysAlisRED (Oxford Diffraction, 2004)'
_computing_data_collection       'CrysAlisCCD (Oxford Diffraction, 2004)'
_computing_data_reduction
'CrysAlisRED (Oxford Diffraction, 2004); REDSHABS (Katrusiak, A.  2003)'
_computing_molecular_graphics    'SHELXTL (Sheldrick, 1990)'
_computing_publication_material  'SHELXL--97 (Sheldrick, 1997)'
_computing_structure_refinement  'SHELXL--97 (Sheldrick, 1997)'
_computing_structure_solution    'SHELXS--97 (Sheldrick, 1997)'
_diffrn_ambient_environment      'diamond-anvil cell'
_diffrn_ambient_pressure         5930000
_diffrn_ambient_temperature      295(2)
_diffrn_measured_fraction_theta_full 0.254
_diffrn_measured_fraction_theta_max 0.254
_diffrn_measurement_device_type  'KM-4 CCD'
_diffrn_measurement_method       '\f- and \w-scans'
_diffrn_radiation_monochromator  graphite
_diffrn_radiation_source         'fine-focus sealed tube'
_diffrn_radiation_type           MoK\a
_diffrn_radiation_wavelength     0.71073
_diffrn_reflns_av_R_equivalents  0.0693
_diffrn_reflns_av_sigmaI/netI    0.0354
_diffrn_reflns_limit_h_max       3
_diffrn_reflns_limit_h_min       -3
_diffrn_reflns_limit_k_max       14
_diffrn_reflns_limit_k_min       -14
_diffrn_reflns_limit_l_max       6
_diffrn_reflns_limit_l_min       -6
_diffrn_reflns_number            1105
_diffrn_reflns_theta_full        27.76
_diffrn_reflns_theta_max         27.76
_diffrn_reflns_theta_min         3.50
_diffrn_standards_decay_%        0
_diffrn_standards_interval_count 0
_diffrn_standards_number         0
_exptl_absorpt_coefficient_mu    0.060
_exptl_absorpt_correction_T_max  0.91
_exptl_absorpt_correction_T_min  0.59
_exptl_absorpt_correction_type   analytical
_exptl_absorpt_process_details
; 
 Correction for absorption of the diamond-anvil cell and the sample 
 were made using program REDSHABS (Katrusiak, A. (2003) REDSHABS. Adam
 Mickiewicz University Pozna\'n; Katrusiak, A. (2004) Z. Kristallogr.
 219, 461-467).
;
_exptl_crystal_colour            colourless
_exptl_crystal_density_diffrn    1.108
_exptl_crystal_density_method    'not measured'
_exptl_crystal_description       cylinder
_exptl_crystal_F_000             104
_exptl_crystal_size_max          0.36
_exptl_crystal_size_mid          0.35
_exptl_crystal_size_min          0.20
_refine_diff_density_max         0.134
_refine_diff_density_min         -0.115
_refine_diff_density_rms         0.029
_refine_ls_extinction_coef       0.30(4)
_refine_ls_extinction_expression Fc^*^=kFc[1+0.001xFc^2^\l^3^/sin(2\q)]^-1/4^
_refine_ls_extinction_method     SHELXL
_refine_ls_goodness_of_fit_ref   1.392
_refine_ls_hydrogen_treatment    constr
_refine_ls_matrix_type           full
_refine_ls_number_parameters     29
_refine_ls_number_reflns         157
_refine_ls_number_restraints     0
_refine_ls_restrained_S_all      1.392
_refine_ls_R_factor_all          0.0920
_refine_ls_R_factor_gt           0.0764
_refine_ls_shift/su_max          0.000
_refine_ls_shift/su_mean         0.000
_refine_ls_structure_factor_coef Fsqd
_refine_ls_weighting_details
'calc w=1/[\s^2^(Fo^2^)+(0.0000P)^2^+0.2716P] where P=(Fo^2^+2Fc^2^)/3'
_refine_ls_weighting_scheme      calc
_refine_ls_wR_factor_gt          0.1072
_refine_ls_wR_factor_ref         0.1125
_reflns_number_gt                133
_reflns_number_total             157
_reflns_threshold_expression     >2sigma(I)
_cod_data_source_file            jp311747m_si_002.cif
_cod_data_source_block           7pro_5.93GPa
_cod_original_sg_symbol_H-M      'P 21/n'
_cod_database_code               1511807
loop_
_symmetry_equiv_pos_as_xyz
'x, y, z'
'-x+1/2, y+1/2, -z+1/2'
'-x, -y, -z'
'x-1/2, -y-1/2, z-1/2'
loop_
_atom_site_label
_atom_site_type_symbol
_atom_site_fract_x
_atom_site_fract_y
_atom_site_fract_z
_atom_site_U_iso_or_equiv
_atom_site_adp_type
_atom_site_occupancy
_atom_site_symmetry_multiplicity
_atom_site_calc_flag
_atom_site_refinement_flags
C1 C 0.218(2) 0.9502(4) 0.2110(13) 0.036(6) Uani 1 1 d .
H1 H -0.0381 0.9467 0.1816 0.054 Uiso 1 1 calc R
H2 H 0.3477 0.9221 0.0874 0.054 Uiso 1 1 calc R
H3 H 0.2868 1.0282 0.2393 0.054 Uiso 1 1 calc R
C2 C 0.307(2) 0.8770(3) 0.4073(12) 0.030(6) Uani 1 1 d .
H4 H 0.1621 0.9018 0.5295 0.036 Uiso 1 1 calc R
H5 H 0.5604 0.8868 0.4462 0.036 Uiso 1 1 calc R
C3 C 0.232(2) 0.7505(3) 0.3606(13) 0.030(6) Uani 1 1 d .
H6 H -0.0229 0.7399 0.3335 0.044 Uiso 1 1 calc R
H8 H 0.3046 0.7052 0.4836 0.044 Uiso 1 1 calc R
H7 H 0.3656 0.7270 0.2351 0.044 Uiso 1 1 calc R
loop_
_atom_site_aniso_label
_atom_site_aniso_U_11
_atom_site_aniso_U_22
_atom_site_aniso_U_33
_atom_site_aniso_U_23
_atom_site_aniso_U_13
_atom_site_aniso_U_12
C1 0.049(11) 0.028(4) 0.032(12) 0.002(3) 0.007(11) 0.007(3)
C2 0.030(12) 0.034(4) 0.025(10) 0.002(3) -0.012(10) -0.003(3)
C3 0.021(12) 0.040(4) 0.028(11) 0.000(2) -0.012(11) -0.001(3)
loop_
_atom_type_symbol
_atom_type_description
_atom_type_scat_dispersion_real
_atom_type_scat_dispersion_imag
_atom_type_scat_source
C C 0.0033 0.0016 'International Tables Vol C Tables 4.2.6.8 and 6.1.1.4'
H H 0.0000 0.0000 'International Tables Vol C Tables 4.2.6.8 and 6.1.1.4'
loop_
_geom_angle_atom_site_label_1
_geom_angle_atom_site_label_2
_geom_angle_atom_site_label_3
_geom_angle
C1 C2 C3 110.8(7)
loop_
_geom_bond_atom_site_label_1
_geom_bond_atom_site_label_2
_geom_bond_distance
C1 C2 1.512(11)
C2 C3 1.527(7)
loop_
_refln_index_h
_refln_index_k
_refln_index_l
_refln_F_squared_calc
_refln_F_squared_meas
_refln_F_squared_sigma
_refln_observed_status
0 2 0 11.98 8.83 1.28 o
1 3 0 27.68 29.03 2.09 o
0 4 0 48.57 45.10 0.97 o
1 4 0 194.23 188.71 1.59 o
1 5 0 13.16 15.32 1.17 o
1 6 0 5.26 5.49 0.39 o
1 7 0 13.36 13.42 0.53 o
2 7 0 5.09 7.29 1.12 o
1 8 0 5.56 3.73 0.44 o
2 8 0 18.24 11.57 1.39 o
1 9 0 7.12 9.67 0.74 o
2 9 0 0.42 1.46 0.61 o
1 10 0 11.35 8.25 1.93 o
2 10 0 30.85 33.31 2.71 o
1 11 0 0.00 0.91 0.53 o
2 11 0 6.89 10.28 1.58 o
2 12 0 2.88 1.54 0.86 o
2 13 0 0.35 0.75 0.55 o
-1 0 1 1853.14 1847.07 12.51 o
-1 1 1 368.44 386.64 3.71 o
-1 2 1 8.55 6.67 0.55 o
0 2 1 486.20 491.10 3.77 o
-2 3 1 1.39 3.40 1.34 o
-1 3 1 24.91 25.22 0.44 o
0 3 1 154.63 150.27 2.78 o
-2 4 1 20.67 18.48 1.47 o
-1 4 1 10.75 14.90 0.63 o
0 4 1 255.69 247.31 0.99 o
-2 5 1 1.43 1.83 0.48 o
-1 5 1 17.81 16.12 1.07 o
0 5 1 113.48 113.97 2.84 o
1 5 1 43.27 49.40 1.70 o
-2 6 1 0.20 3.07 0.74 o
-1 6 1 51.16 49.96 2.04 o
0 6 1 4.72 1.84 0.21 o
1 6 1 92.43 90.75 2.73 o
-2 7 1 0.11 4.37 1.19 o
-1 7 1 51.53 55.93 1.12 o
0 7 1 45.45 48.91 1.41 o
1 7 1 124.40 129.87 2.50 o
-2 8 1 6.42 4.95 0.72 o
-1 8 1 11.40 5.62 0.93 o
0 8 1 13.86 13.95 1.37 o
1 8 1 3.32 4.29 0.58 o
-2 9 1 0.29 3.69 0.89 o
0 9 1 31.07 29.68 1.66 o
1 9 1 19.26 20.93 1.05 o
-2 10 1 9.76 8.89 1.22 o
1 10 1 49.88 54.69 1.44 o
-2 11 1 0.81 1.36 0.87 o
1 11 1 4.96 2.82 0.61 o
-2 12 1 1.81 1.25 1.76 o
1 12 1 0.43 1.58 0.71 o
1 13 1 0.81 1.16 0.87 o
-2 0 2 51.12 49.24 0.47 o
-2 1 2 96.27 96.61 1.10 o
-1 1 2 20.51 19.75 0.52 o
-2 2 2 35.88 35.90 0.76 o
-1 2 2 34.19 36.79 1.44 o
-2 3 2 5.72 11.01 1.36 o
-1 3 2 71.21 66.44 2.93 o
0 3 2 153.78 153.16 4.41 o
-2 4 2 0.03 0.28 0.64 o
-1 4 2 38.92 34.79 0.83 o
0 4 2 213.61 214.49 1.19 o
-2 5 2 2.27 1.25 0.38 o
-1 5 2 30.08 29.18 0.74 o
0 5 2 4.29 3.97 0.41 o
-2 6 2 0.21 1.11 1.80 o
-1 6 2 42.41 37.25 1.23 o
0 6 2 6.50 4.58 0.38 o
-2 7 2 42.19 45.71 4.12 o
-1 7 2 20.64 25.12 0.44 o
0 7 2 199.24 199.46 1.27 o
-3 8 2 2.76 3.13 1.30 o
-2 8 2 3.49 2.15 0.61 o
0 8 2 26.65 25.84 0.83 o
1 8 2 8.59 5.78 0.90 o
-3 9 2 1.53 1.57 0.82 o
-2 9 2 21.44 22.09 7.65 o
0 9 2 50.00 52.89 1.22 o
1 9 2 29.63 28.74 2.43 o
-3 10 2 1.58 2.96 1.52 o
0 10 2 34.20 37.94 2.99 o
1 10 2 7.79 7.07 1.04 o
-3 11 2 0.93 1.41 1.11 o
0 11 2 0.08 0.53 0.59 o
1 11 2 0.22 1.62 0.72 o
1 12 2 2.34 2.40 0.81 o
1 13 2 0.33 1.33 1.44 o
1 14 2 0.05 2.59 2.73 o
-1 0 3 16.85 14.69 0.80 o
-2 1 3 3.34 3.10 0.47 o
-1 1 3 56.46 60.52 1.27 o
-2 2 3 0.42 1.95 0.30 o
-1 2 3 161.32 160.96 4.04 o
-3 3 3 0.06 0.44 1.01 o
-2 3 3 18.87 16.73 1.19 o
-1 3 3 14.53 14.98 0.63 o
-3 4 3 0.44 1.80 0.74 o
-2 4 3 15.17 11.90 2.06 o
-1 4 3 13.06 14.32 0.98 o
-3 5 3 0.00 0.85 0.53 o
-2 5 3 6.01 4.43 0.81 o
-1 5 3 0.68 0.76 0.27 o
-3 6 3 2.26 2.43 0.69 o
-2 6 3 32.95 38.58 0.94 o
-1 6 3 5.27 4.89 0.70 o
0 6 3 108.10 104.31 1.38 o
-3 7 3 15.47 17.89 2.38 o
-1 7 3 58.28 65.52 1.38 o
0 7 3 8.85 5.16 0.62 o
-3 8 3 19.34 20.61 2.18 o
-1 8 3 86.71 94.78 5.32 o
0 8 3 9.10 15.85 1.05 o
-3 9 3 4.95 2.46 0.85 o
-1 9 3 12.59 8.51 1.92 o
0 9 3 11.59 13.57 0.98 o
0 10 3 14.60 15.73 2.19 o
0 11 3 2.78 4.01 0.86 o
0 12 3 2.50 1.73 0.77 o
0 13 3 0.64 1.90 0.78 o
-2 0 4 16.19 19.04 0.92 o
-3 1 4 0.46 2.15 1.05 o
-2 1 4 0.38 0.82 0.34 o
-3 2 4 0.95 1.88 0.77 o
-2 2 4 52.47 56.06 3.66 o
-3 3 4 1.94 2.14 0.89 o
-2 3 4 1.29 1.68 0.62 o
-1 3 4 3.01 1.80 0.62 o
-3 4 4 5.31 7.75 1.17 o
-2 4 4 1.23 1.72 0.47 o
-1 4 4 16.78 20.17 1.60 o
-3 5 4 0.28 1.75 0.71 o
-2 5 4 2.72 1.86 0.54 o
-1 5 4 1.86 0.99 0.52 o
-3 6 4 18.10 24.37 2.32 o
-2 6 4 5.64 3.34 0.87 o
-1 6 4 50.80 52.61 1.37 o
-2 7 4 2.92 0.72 0.70 o
-1 7 4 0.00 1.50 0.54 o
-1 8 4 4.34 6.71 1.19 o
-1 9 4 2.18 1.51 0.63 o
-1 10 4 7.80 4.80 1.60 o
-1 11 4 6.00 2.95 1.00 o
-3 0 5 1.84 1.65 0.59 o
-3 1 5 8.88 6.70 1.36 o
-3 2 5 12.51 8.21 1.26 o
-2 2 5 0.10 1.12 0.64 o
-2 3 5 0.03 1.05 0.77 o
-2 4 5 5.83 11.93 2.89 o
-2 5 5 3.02 1.16 0.72 o
-2 6 5 10.26 9.41 1.44 o
-2 7 5 0.03 0.77 0.55 o
-2 8 5 1.12 0.37 1.17 o
-3 3 6 0.02 3.06 1.53 o
-3 4 6 1.72 1.54 1.06 o
