#------------------------------------------------------------------------------
#$Date: 2016-02-18 17:37:37 +0200 (Thu, 18 Feb 2016) $
#$Revision: 176729 $
#$URL: svn://www.crystallography.net/cod/cif/1/51/18/1511806.cif $
#------------------------------------------------------------------------------
#
# This file is available in the Crystallography Open Database (COD),
# http://www.crystallography.net/
#
# All data on this site have been placed in the public domain by the
# contributors.
#
data_1511806
loop_
_publ_author_name
'Podsiad\/lo, Marcin'
'Olejniczak, Anna'
'Katrusiak, Andrzej'
_publ_section_title
;
 Why Propane?
;
_journal_issue                   9
_journal_name_full               'The Journal of Physical Chemistry C'
_journal_page_first              4759
_journal_paper_doi               10.1021/jp311747m
_journal_volume                  117
_journal_year                    2013
_chemical_formula_moiety         'C3 H8'
_chemical_formula_sum            'C3 H8'
_chemical_formula_weight         44.09
_chemical_melting_point          86
_chemical_name_common            propane
_chemical_name_systematic
; 
propane
;
_space_group_IT_number           14
_symmetry_cell_setting           monoclinic
_symmetry_space_group_name_Hall  '-P 2yn'
_symmetry_space_group_name_H-M   'P 1 21/n 1'
_atom_sites_solution_hydrogens   geom
_atom_sites_solution_primary     direct
_atom_sites_solution_secondary   difmap
_audit_creation_method           SHELXL-97
_cell_angle_alpha                90.00
_cell_angle_beta                 90.86(9)
_cell_angle_gamma                90.00
_cell_formula_units_Z            4
_cell_length_a                   3.722(5)
_cell_length_b                   11.676(11)
_cell_length_c                   6.212(7)
_cell_measurement_reflns_used    690
_cell_measurement_temperature    295(2)
_cell_measurement_theta_max      27.10
_cell_measurement_theta_min      3.49
_cell_volume                     269.9(5)
_computing_cell_refinement       'CrysAlisRED (Oxford Diffraction, 2004)'
_computing_data_collection       'CrysAlisCCD (Oxford Diffraction, 2004)'
_computing_data_reduction
'CrysAlisRED (Oxford Diffraction, 2004); REDSHABS (Katrusiak, A.  2003)'
_computing_molecular_graphics    'SHELXTL (Sheldrick, 1990)'
_computing_publication_material  'SHELXL--97 (Sheldrick, 1997)'
_computing_structure_refinement  'SHELXL--97 (Sheldrick, 1997)'
_computing_structure_solution    'SHELXS--97 (Sheldrick, 1997)'
_diffrn_ambient_environment      'diamond-anvil cell'
_diffrn_ambient_pressure         5350000
_diffrn_ambient_temperature      295(2)
_diffrn_measured_fraction_theta_full 0.273
_diffrn_measured_fraction_theta_max 0.273
_diffrn_measurement_device_type  'KM-4 CCD'
_diffrn_measurement_method       '\f- and \w-scans'
_diffrn_radiation_monochromator  graphite
_diffrn_radiation_source         'fine-focus sealed tube'
_diffrn_radiation_type           MoK\a
_diffrn_radiation_wavelength     0.71073
_diffrn_reflns_av_R_equivalents  0.0617
_diffrn_reflns_av_sigmaI/netI    0.0307
_diffrn_reflns_limit_h_max       3
_diffrn_reflns_limit_h_min       -3
_diffrn_reflns_limit_k_max       14
_diffrn_reflns_limit_k_min       -14
_diffrn_reflns_limit_l_max       6
_diffrn_reflns_limit_l_min       -6
_diffrn_reflns_number            1119
_diffrn_reflns_theta_full        27.10
_diffrn_reflns_theta_max         27.10
_diffrn_reflns_theta_min         3.49
_diffrn_standards_decay_%        0
_diffrn_standards_interval_count 0
_diffrn_standards_number         0
_exptl_absorpt_coefficient_mu    0.059
_exptl_absorpt_correction_T_max  0.92
_exptl_absorpt_correction_T_min  0.57
_exptl_absorpt_correction_type   analytical
_exptl_absorpt_process_details
; 
 Correction for absorption of the diamond-anvil cell and the sample 
 were made using program REDSHABS (Katrusiak, A. (2003) REDSHABS. Adam
 Mickiewicz University Pozna\'n; Katrusiak, A. (2004) Z. Kristallogr.
 219, 461-467).
;
_exptl_crystal_colour            colourless
_exptl_crystal_density_diffrn    1.085
_exptl_crystal_density_method    'not measured'
_exptl_crystal_description       cylinder
_exptl_crystal_F_000             104
_exptl_crystal_size_max          0.32
_exptl_crystal_size_mid          0.32
_exptl_crystal_size_min          0.20
_refine_diff_density_max         0.102
_refine_diff_density_min         -0.083
_refine_diff_density_rms         0.026
_refine_ls_extinction_coef       0.86(7)
_refine_ls_extinction_expression Fc^*^=kFc[1+0.001xFc^2^\l^3^/sin(2\q)]^-1/4^
_refine_ls_extinction_method     SHELXL
_refine_ls_goodness_of_fit_ref   1.189
_refine_ls_hydrogen_treatment    constr
_refine_ls_matrix_type           full
_refine_ls_number_parameters     29
_refine_ls_number_reflns         163
_refine_ls_number_restraints     0
_refine_ls_restrained_S_all      1.189
_refine_ls_R_factor_all          0.0722
_refine_ls_R_factor_gt           0.0560
_refine_ls_shift/su_max          0.000
_refine_ls_shift/su_mean         0.000
_refine_ls_structure_factor_coef Fsqd
_refine_ls_weighting_details
'calc w=1/[\s^2^(Fo^2^)+(0.0000P)^2^+0.2577P] where P=(Fo^2^+2Fc^2^)/3'
_refine_ls_weighting_scheme      calc
_refine_ls_wR_factor_gt          0.0844
_refine_ls_wR_factor_ref         0.0898
_reflns_number_gt                135
_reflns_number_total             163
_reflns_threshold_expression     >2sigma(I)
_cod_data_source_file            jp311747m_si_002.cif
_cod_data_source_block           6pro_5.35GPa
_cod_original_sg_symbol_H-M      'P 21/n'
_cod_database_code               1511806
loop_
_symmetry_equiv_pos_as_xyz
'x, y, z'
'-x+1/2, y+1/2, -z+1/2'
'-x, -y, -z'
'x-1/2, -y-1/2, z-1/2'
loop_
_atom_site_label
_atom_site_type_symbol
_atom_site_fract_x
_atom_site_fract_y
_atom_site_fract_z
_atom_site_U_iso_or_equiv
_atom_site_adp_type
_atom_site_occupancy
_atom_site_symmetry_multiplicity
_atom_site_calc_flag
_atom_site_refinement_flags
C1 C 0.216(2) 0.9507(3) 0.2151(9) 0.030(5) Uani 1 1 d .
H1 H -0.0383 0.9470 0.1866 0.046 Uiso 1 1 calc R
H2 H 0.3427 0.9251 0.0905 0.046 Uiso 1 1 calc R
H3 H 0.2828 1.0282 0.2477 0.046 Uiso 1 1 calc R
C2 C 0.3081(19) 0.8761(3) 0.4008(9) 0.024(5) Uani 1 1 d .
H4 H 0.1760 0.9018 0.5252 0.028 Uiso 1 1 calc R
H5 H 0.5623 0.8841 0.4341 0.028 Uiso 1 1 calc R
C3 C 0.225(2) 0.7511(3) 0.3616(10) 0.025(5) Uani 1 1 d .
H6 H -0.0277 0.7418 0.3352 0.037 Uiso 1 1 calc R
H8 H 0.2960 0.7072 0.4859 0.037 Uiso 1 1 calc R
H7 H 0.3555 0.7248 0.2388 0.037 Uiso 1 1 calc R
loop_
_atom_site_aniso_label
_atom_site_aniso_U_11
_atom_site_aniso_U_22
_atom_site_aniso_U_33
_atom_site_aniso_U_23
_atom_site_aniso_U_13
_atom_site_aniso_U_12
C1 0.031(12) 0.033(3) 0.028(8) -0.002(2) -0.005(9) 0.003(2)
C2 0.014(11) 0.033(3) 0.023(7) 0.002(2) -0.008(8) -0.001(2)
C3 0.014(12) 0.037(3) 0.022(7) -0.003(2) -0.011(9) -0.002(2)
loop_
_atom_type_symbol
_atom_type_description
_atom_type_scat_dispersion_real
_atom_type_scat_dispersion_imag
_atom_type_scat_source
C C 0.0033 0.0016 'International Tables Vol C Tables 4.2.6.8 and 6.1.1.4'
H H 0.0000 0.0000 'International Tables Vol C Tables 4.2.6.8 and 6.1.1.4'
loop_
_geom_angle_atom_site_label_1
_geom_angle_atom_site_label_2
_geom_angle_atom_site_label_3
_geom_angle
C1 C2 C3 113.5(6)
loop_
_geom_bond_atom_site_label_1
_geom_bond_atom_site_label_2
_geom_bond_distance
C1 C2 1.482(8)
C2 C3 1.510(6)
loop_
_refln_index_h
_refln_index_k
_refln_index_l
_refln_F_squared_calc
_refln_F_squared_meas
_refln_F_squared_sigma
_refln_observed_status
0 2 0 14.06 10.93 0.26 o
1 3 0 33.53 32.82 1.11 o
0 4 0 54.88 46.81 5.39 o
1 4 0 195.08 203.78 6.57 o
1 5 0 17.00 16.93 0.44 o
0 6 0 310.27 304.06 8.47 o
1 6 0 6.11 5.22 0.31 o
1 7 0 14.68 13.99 0.39 o
1 8 0 6.41 5.39 0.35 o
1 9 0 7.03 8.72 0.76 o
1 10 0 12.72 12.98 0.78 o
1 11 0 0.00 1.29 0.59 o
1 12 0 2.59 0.97 0.62 o
-1 0 1 1953.67 1936.86 6.96 o
-1 1 1 406.57 414.34 1.18 o
0 1 1 64.51 58.73 0.42 o
-1 2 1 11.95 9.37 0.21 o
0 2 1 539.72 567.34 8.59 o
-1 3 1 33.17 29.26 0.41 o
0 3 1 155.54 149.50 2.04 o
-1 4 1 6.55 4.27 0.21 o
0 4 1 248.56 243.16 1.15 o
-1 5 1 27.00 31.97 0.82 o
0 5 1 109.58 108.92 2.55 o
-2 6 1 1.09 0.74 0.42 o
-1 6 1 45.07 48.67 1.02 o
0 6 1 3.45 2.18 0.18 o
1 6 1 97.51 101.02 1.75 o
-2 7 1 0.12 0.86 0.61 o
-1 7 1 52.91 46.43 1.11 o
0 7 1 45.81 48.67 1.17 o
1 7 1 128.26 130.95 1.45 o
-2 8 1 7.32 5.84 0.94 o
-1 8 1 15.54 15.32 1.48 o
0 8 1 13.49 14.22 0.93 o
1 8 1 4.54 3.09 0.45 o
-2 9 1 0.17 0.89 0.49 o
-1 9 1 26.78 29.84 5.30 o
0 9 1 27.57 20.11 3.72 o
1 9 1 18.00 17.52 0.74 o
-2 10 1 13.11 16.57 0.94 o
-1 10 1 41.62 41.07 0.77 o
0 10 1 4.76 4.61 0.31 o
1 10 1 54.72 55.93 1.14 o
-2 11 1 1.63 1.71 0.84 o
1 11 1 3.85 4.10 0.62 o
-2 12 1 1.83 1.42 0.83 o
1 12 1 0.18 0.90 0.33 o
-2 13 1 0.07 0.35 0.78 o
1 13 1 0.26 0.86 0.75 o
1 14 1 6.47 2.48 2.71 o
-1 1 2 33.82 31.69 0.70 o
-1 2 2 46.53 44.48 0.54 o
-2 3 2 4.53 4.00 0.55 o
-1 3 2 74.79 78.89 1.15 o
0 3 2 142.88 143.41 0.86 o
-2 4 2 1.29 1.49 0.45 o
-1 4 2 37.45 36.78 1.16 o
0 4 2 190.06 190.83 1.14 o
-2 5 2 3.02 1.61 0.40 o
-1 5 2 28.10 23.73 0.49 o
0 5 2 4.15 4.00 0.31 o
-2 6 2 0.03 0.68 0.32 o
-1 6 2 32.95 33.08 0.43 o
0 6 2 6.82 5.27 0.33 o
-2 7 2 43.92 46.48 1.12 o
-1 7 2 20.06 16.36 0.98 o
0 7 2 213.82 223.03 1.26 o
-2 8 2 2.41 2.26 0.51 o
0 8 2 23.37 22.29 0.83 o
-2 9 2 29.96 34.83 1.10 o
0 9 2 57.82 63.87 2.91 o
1 9 2 30.06 21.80 1.46 o
-2 10 2 7.53 8.91 1.21 o
0 10 2 31.60 31.35 1.06 o
1 10 2 6.89 7.82 1.53 o
-2 11 2 0.76 1.40 0.87 o
0 11 2 0.04 0.73 0.50 o
1 11 2 0.01 1.68 0.66 o
-2 12 2 11.27 11.54 1.14 o
1 12 2 3.05 3.05 1.42 o
1 13 2 0.15 0.78 0.98 o
1 14 2 0.01 0.63 1.62 o
-1 0 3 14.78 13.14 0.32 o
-2 1 3 9.93 6.42 0.69 o
-1 1 3 72.11 78.19 1.09 o
-2 2 3 0.54 0.67 0.27 o
-1 2 3 188.07 192.78 1.33 o
-2 3 3 23.55 26.38 0.74 o
-1 3 3 6.10 4.78 0.32 o
-2 4 3 16.59 22.24 0.83 o
-1 4 3 8.73 7.17 1.22 o
-2 5 3 7.48 7.35 0.61 o
-1 5 3 0.93 1.37 0.46 o
0 5 3 0.25 0.31 0.23 o
-2 6 3 30.55 36.46 1.14 o
-1 6 3 7.07 7.90 0.46 o
0 6 3 114.51 118.34 2.72 o
-2 7 3 3.25 5.03 0.66 o
-1 7 3 61.62 70.75 3.84 o
0 7 3 8.00 6.82 0.62 o
-2 8 3 3.27 3.48 0.55 o
-1 8 3 91.16 91.50 0.83 o
0 8 3 7.59 9.56 0.66 o
-2 9 3 8.61 4.31 0.86 o
0 9 3 13.54 15.68 0.79 o
0 10 3 15.43 15.05 1.40 o
0 11 3 0.88 3.24 0.72 o
0 12 3 2.27 1.34 0.63 o
0 13 3 0.55 0.81 0.51 o
-2 0 4 22.37 27.41 0.83 o
-2 1 4 0.11 0.62 0.22 o
-1 1 4 12.19 12.12 0.54 o
-2 2 4 62.93 63.04 0.81 o
-1 2 4 15.63 14.98 0.77 o
-2 3 4 0.26 1.02 0.34 o
-1 3 4 4.19 4.83 0.36 o
-2 4 4 2.26 1.29 0.29 o
-1 4 4 22.36 25.30 0.70 o
-2 5 4 3.68 3.22 0.52 o
-1 5 4 0.47 0.88 0.34 o
-3 6 4 25.03 19.16 1.19 o
-2 6 4 7.29 4.00 0.99 o
-1 6 4 59.84 61.86 1.14 o
-3 7 4 0.70 0.91 0.64 o
-2 7 4 2.52 1.24 0.93 o
-1 7 4 0.14 0.64 0.47 o
-3 8 4 2.25 3.26 0.85 o
-1 8 4 4.65 6.94 0.86 o
-3 9 4 1.23 1.38 0.80 o
-1 9 4 2.64 2.75 0.65 o
-1 10 4 11.76 10.68 0.64 o
0 10 4 1.28 2.21 0.61 o
0 11 4 4.03 4.31 0.96 o
0 12 4 2.68 3.66 0.88 o
-2 1 5 17.36 19.13 1.34 o
-2 2 5 1.76 1.62 0.50 o
-3 3 5 0.00 1.28 0.85 o
-2 3 5 0.31 0.90 0.45 o
-3 4 5 1.79 1.72 0.58 o
-2 4 5 7.26 8.20 1.10 o
-1 4 5 0.51 1.03 1.86 o
-3 5 5 3.92 3.30 0.70 o
-2 5 5 2.69 2.51 1.07 o
-1 5 5 6.53 3.06 0.58 o
-3 6 5 1.20 0.79 0.69 o
-2 6 5 16.78 17.18 1.02 o
-1 6 5 6.53 8.22 1.16 o
-3 7 5 3.04 3.69 2.65 o
-1 7 5 5.36 4.12 0.75 o
-1 8 5 33.25 30.07 1.32 o
-1 9 5 18.17 16.47 1.32 o
-1 10 5 0.19 0.81 0.60 o
-1 11 5 0.06 1.41 1.11 o
-3 1 6 10.05 8.22 1.78 o
-3 2 6 0.51 1.97 1.11 o
-2 2 6 4.78 3.17 1.03 o
-3 3 6 0.84 0.71 0.90 o
-2 3 6 1.13 1.60 0.75 o
-2 4 6 0.38 1.54 0.71 o
-2 5 6 6.93 7.54 2.15 o
-2 6 6 0.07 1.25 1.48 o
-2 7 6 7.13 3.16 2.16 o
