#------------------------------------------------------------------------------
#$Date: 2016-02-18 17:37:37 +0200 (Thu, 18 Feb 2016) $
#$Revision: 176729 $
#$URL: svn://www.crystallography.net/cod/cif/1/51/18/1511818.cif $
#------------------------------------------------------------------------------
#
# This file is available in the Crystallography Open Database (COD),
# http://www.crystallography.net/
#
# All data on this site have been placed in the public domain by the
# contributors.
#
data_1511818
loop_
_publ_author_name
'Merz, Tyler A.'
'Waddell, Paul G.'
'Cole, Jacqueline M.'
_publ_section_title
;
 Systematic Molecular Design ofp-Phenylene Lasing Properties
;
_journal_issue                   16
_journal_name_full               'The Journal of Physical Chemistry C'
_journal_page_first              8429
_journal_paper_doi               10.1021/jp401004m
_journal_volume                  117
_journal_year                    2013
_chemical_formula_moiety         'C38 H42'
_chemical_formula_sum            'C38 H42'
_chemical_formula_weight         498.72
_chemical_name_systematic
;
Exalite 384
;
_space_group_IT_number           14
_symmetry_cell_setting           monoclinic
_symmetry_space_group_name_Hall  '-P 2ybc'
_symmetry_space_group_name_H-M   'P 1 21/c 1'
_atom_sites_solution_hydrogens   geom
_atom_sites_solution_primary     direct
_atom_sites_solution_secondary   difmap
_audit_creation_date             2012-06-21T14:31:20-00:00
_audit_creation_method           'WinGX routine CIF_UPDATE'
_cell_angle_alpha                90
_cell_angle_beta                 102.668(3)
_cell_angle_gamma                90
_cell_formula_units_Z            2
_cell_length_a                   8.7787(17)
_cell_length_b                   15.673(3)
_cell_length_c                   10.689(2)
_cell_measurement_reflns_used    5662
_cell_measurement_temperature    120(2)
_cell_measurement_theta_max      33.1
_cell_measurement_theta_min      2.3
_cell_volume                     1434.9(5)
_computing_cell_refinement
;
        CrystalClear-SM Expert 2.0 r4 (Rigaku, 2009)
;
_computing_data_collection
;
        CrystalClear-SM Expert 2.0 r4 (Rigaku, 2009)
;
_computing_data_reduction
;
        CrystalClear-SM Expert 2.0 r4 (Rigaku, 2009)
;
_computing_structure_refinement  'SHELXL-97 (Sheldrick, 2008)'
_diffrn_ambient_temperature      120(2)
_diffrn_detector_area_resol_mean 28.5714
_diffrn_measured_fraction_theta_full 0.971
_diffrn_measured_fraction_theta_max 0.971
_diffrn_measurement_device_type
;
        Rigaku Saturn724+ (2x2 bin mode)
;
_diffrn_measurement_method       'profile data from \w-scans'
_diffrn_radiation_monochromator  graphite
_diffrn_radiation_type           MoK\a
_diffrn_radiation_wavelength     0.71073
_diffrn_reflns_av_R_equivalents  0.0224
_diffrn_reflns_av_unetI/netI     0.0251
_diffrn_reflns_limit_h_max       11
_diffrn_reflns_limit_h_min       -11
_diffrn_reflns_limit_k_max       20
_diffrn_reflns_limit_k_min       -12
_diffrn_reflns_limit_l_max       8
_diffrn_reflns_limit_l_min       -13
_diffrn_reflns_number            5363
_diffrn_reflns_theta_full        27.48
_diffrn_reflns_theta_max         27.48
_diffrn_reflns_theta_min         3.63
_diffrn_source                   'Sealed Tube'
_exptl_absorpt_coefficient_mu    0.065
_exptl_absorpt_correction_T_max  0.983
_exptl_absorpt_correction_T_min  0.979
_exptl_absorpt_correction_type   multi-scan
_exptl_absorpt_process_details   'Higashi, 1995'
_exptl_crystal_colour            Colorless
_exptl_crystal_density_diffrn    1.154
_exptl_crystal_density_method    'not measured'
_exptl_crystal_description       Prism
_exptl_crystal_F_000             540
_exptl_crystal_size_max          0.38
_exptl_crystal_size_mid          0.27
_exptl_crystal_size_min          0.26
_refine_diff_density_max         0.309
_refine_diff_density_min         -0.204
_refine_diff_density_rms         0.042
_refine_ls_extinction_method     none
_refine_ls_goodness_of_fit_ref   1.052
_refine_ls_hydrogen_treatment    mixed
_refine_ls_matrix_type           full
_refine_ls_number_parameters     256
_refine_ls_number_reflns         3200
_refine_ls_number_restraints     0
_refine_ls_restrained_S_all      1.052
_refine_ls_R_factor_all          0.051
_refine_ls_R_factor_gt           0.0477
_refine_ls_shift/su_max          0
_refine_ls_shift/su_mean         0
_refine_ls_structure_factor_coef Fsqd
_refine_ls_weighting_details
'calc w=1/[\s^2^(Fo^2^)+(0.0767P)^2^+0.3349P] where P=(Fo^2^+2Fc^2^)/3'
_refine_ls_weighting_scheme      calc
_refine_ls_wR_factor_ref         0.1311
_reflns_number_gt                2956
_reflns_number_total             3200
_reflns_threshold_expression     >2\s(I)
_iucr_refine_instructions_details
;
TITL 384 in P 21/n
CELL  0.71073   9.8620  49.7070  10.3190   90.000   93.959   90.000
ZERR     4.00   0.0030   0.0150   0.0030    0.000    0.005    0.000
LATT   1
SYMM  1/2 - X, 1/2 + Y, 1/2 - Z
SFAC  C    H    O
UNIT  264  272  16
MERG   2
OMIT     0   3   1
OMIT     0   4   1
OMIT    -8  24   6
OMIT   -10  19   9
OMIT   -10   9   7
OMIT   -10  22  10
OMIT     0   2   1
OMIT    -1  45  10
OMIT     5  30   4
OMIT   -10  15   8
OMIT     1   3   0
OMIT     1   2   0
OMIT    -1   0   1
OMIT     1   4   0
OMIT    -1   1   1
OMIT    -1   2   1
OMIT     5  29   2
OMIT     1   1   0
OMIT     2   1   2
OMIT     3  12   2
OMIT     6  30   0
OMIT     4  38   4
OMIT     5  25   1
OMIT     5  20   1
OMIT     6  36   2
OMIT     0  22  10
OMIT     5  22   2
OMIT   -10  11   8
OMIT     0   4   0
OMIT    -3  37  10
OMIT     3  50   9
OMIT     0   1   1
OMIT    -3  27  13
OMIT     0  35  10
OMIT    -1  32  12
OMIT     1   1   1
OMIT    -9  21  10
OMIT   -10  27   9
OMIT    -5   7   8
OMIT    -7  24  12
SHEL 999 .77
MPLA  C1 C6 C5 C4 C3 C2
MPLA  C7 C12 C11 C10 C9 C8
MPLA  C13 C18 C17 C16 C15 C14
MPLA  C19 C24 C23 C23 C24 C20
MPLA  C1B C2B C3B C4B C5B C6B
MPLA  C7B C8B C9B C10B C11B C12B
MPLA  C13B C14B C15B C16B C17B C18B
MPLA  C19B C20B C21B C22B C23B C24B
FMAP   2
PLAN   20
ACTA
BOND   $H
CONF
L.S.   4
WGHT    0.073800    0.116700
FVAR       3.15975
H1    2    0.630147    0.284012    0.027909    11.00000    0.04065
H2    2    0.558284    0.240436   -0.056461    11.00000    0.05039
H3    2    0.165783    0.260198    0.024556    11.00000    0.01927
H4    2    0.237068    0.301446    0.103887    11.00000    0.02618
H5    2    0.138449    0.228869   -0.153972    11.00000    0.05440
H6    2    0.144668    0.214178   -0.010169    11.00000    0.07606
H7    2    0.187126    0.197021   -0.141274    11.00000    0.05403
H8    2    0.714291    0.372440    0.056178    11.00000    0.03713
H9    2    0.624714    0.329944   -0.024389    11.00000    0.03924
H10   2    0.365455    0.326391    0.281709    11.00000    0.03100
H11   2    0.793030    0.455675    0.321185    11.00000    0.04001
H12   2    0.774533    0.417403    0.189243    11.00000    0.03419
H13   2    0.388748    0.346656    0.516803    11.00000    0.03516
H14   2    0.420501    0.376066    0.588889    11.00000    0.02907
H15   2    0.500569    0.425651    0.544662    11.00000    0.02811
H16   2    0.881057    0.517063    0.609511    11.00000    0.04441
H17   2    0.855723    0.477316    0.483735    11.00000    0.03365
H18   2    0.482036    0.467064    0.603498    11.00000    0.02690
H19   2    0.498028    0.505840    0.735130    11.00000    0.04302
H20   2    0.528565    0.550756    0.790300    11.00000    0.05657
H26B  2    0.608169    0.533734    0.911477    11.00000    0.03442
H26C  2    0.650606    0.564784    0.883236    11.00000    0.04695
H29A  2    0.653720    0.368933    0.568105    11.00000    0.03877
H29B  2    0.634424    0.342313    0.492834    11.00000    0.04626
H30A  2    0.545012    0.320619    0.668443    11.00000    0.05649
H30B  2    0.699202    0.332011    0.711159    11.00000    0.05282
H30C  2    0.561217    0.347488    0.767327    11.00000    0.06217
H31A  2    0.285595    0.394976    0.266022    11.00000    0.03446
H31B  2    0.225820    0.368939    0.342116    11.00000    0.05284
H32A  2    0.273843    0.422050    0.467481    11.00000    0.05647
H32B  2    0.216742    0.394122    0.530877    11.00000    0.03964
H33A  2    0.030065    0.422839    0.467559    11.00000    0.07148
H33B  2    0.023916    0.396778    0.361814    11.00000    0.04960
H33C  2    0.079086    0.424274    0.317464    11.00000    0.06619
H35   2    0.281557    0.282102    0.777725    11.00000    0.02630
H36   2    0.396407    0.242616    0.686286    11.00000    0.03695
H38   2    0.311803    0.272395    0.314979    11.00000    0.04835
H39   2    0.203342    0.309196    0.398740    11.00000    0.03218
H40A  2    0.313874    0.223414    0.286781    11.00000    0.04424
H40B  2    0.455079    0.206943    0.309012    11.00000    0.05826
H40C  2    0.455372    0.238751    0.271583    11.00000    0.03739
H43   2    0.267120    0.327579    0.814633    11.00000    0.02197
H45   2    0.017125    0.323277    0.478366    11.00000    0.03397
H46   2   -0.103425    0.362458    0.542157    11.00000    0.03542
H48   2    0.044536    0.419469    1.057615    11.00000    0.03950
H51   2   -0.194609    0.406921    0.647618    11.00000    0.02491
H52   2   -0.244950    0.444471    0.772654    11.00000    0.03516
H54   2    0.001443    0.504151    1.215058    11.00000    0.03395
H55   2    0.053263    0.465936    1.104557    11.00000    0.02764
H57   2   -0.343265    0.459971    0.948262    11.00000    0.03260
H58   2   -0.396214    0.499489    1.073059    11.00000    0.03499
H59A  2   -0.080244    0.548435    1.250002    11.00000    0.03418
H59B  2   -0.201434    0.553641    1.358588    11.00000    0.04836
H59C  2   -0.102550    0.527573    1.371204    11.00000    0.03714
H61A  2    0.182496    0.346075    1.067739    11.00000    0.03804
H61B  2    0.095526    0.369442    1.123069    11.00000    0.02833
H62A  2   -0.094536    0.348782    0.994267    11.00000    0.05035
H62B  2   -0.003443    0.324048    0.969060    11.00000    0.03498
H63A  2   -0.134834    0.315205    1.150773    11.00000    0.05541
H63B  2   -0.071457    0.341702    1.232174    11.00000    0.07293
H63C  2    0.029821    0.316028    1.201389    11.00000    0.06626
H64A  2    0.346794    0.369920    0.944315    11.00000    0.02937
H64B  2    0.291769    0.392260    1.040569    11.00000    0.03559
H65A  2    0.266426    0.422861    0.857176    11.00000    0.04051
H65B  2    0.291005    0.399152    0.761710    11.00000    0.03942
H66A  2    0.493595    0.427406    0.797643    11.00000    0.05664
H66B  2    0.531775    0.396216    0.838034    11.00000    0.04847
H66C  2    0.504146    0.417539    0.953529    11.00000    0.06051
MOLE    1
C1    1    0.441564    0.297470    0.073547    11.00000    0.03222    0.02933 =
         0.02583    0.00148   -0.00369    0.00481
C6    1    0.532702    0.279068    0.025166    11.00000    0.03190    0.03336 =
         0.03956   -0.00114   -0.00234    0.00421
C5    1    0.490411    0.254210   -0.022371    11.00000    0.03758    0.03357 =
         0.03956   -0.00407   -0.00294    0.00956
C4    1    0.354775    0.246874   -0.023128    11.00000    0.04112    0.02904 =
         0.03027    0.00092   -0.00474    0.00216
C3    1    0.261640    0.264448    0.025002    11.00000    0.03253    0.03612 =
         0.02992    0.00499   -0.00221    0.00106
C2    1    0.306169    0.289515    0.073046    11.00000    0.03200    0.03204 =
         0.02660    0.00243   -0.00053    0.00431
C25   1    0.183711    0.215205   -0.095606    11.00000    0.05192    0.03763 =
         0.05731   -0.00291   -0.00176   -0.01204
C7    1    0.584413    0.374198    0.211579    11.00000    0.02592    0.03165 =
         0.02767    0.00241   -0.00079    0.00246
C12   1    0.637126    0.362985    0.102345    11.00000    0.02935    0.03356 =
         0.02864    0.00151    0.00257    0.00223
C11   1    0.588774    0.338034    0.058713    11.00000    0.03141    0.03337 =
         0.02867    0.00137    0.00226    0.00465
C10   1    0.488731    0.324274    0.122285    11.00000    0.03074    0.02988 =
         0.02880   -0.00036   -0.00370    0.00442
C9    1    0.435272    0.336225    0.230680    11.00000    0.02859    0.03195 =
         0.02613    0.00148   -0.00042    0.00310
C8    1    0.483135    0.360967    0.275922    11.00000    0.02668    0.03042 =
         0.02481    0.00249   -0.00147    0.00342
C13   1    0.647213    0.444027    0.445036    11.00000    0.02419    0.02978 =
         0.02705    0.00280   -0.00191    0.00041
C18   1    0.725427    0.441247    0.337864    11.00000    0.02835    0.03052 =
         0.03347    0.00440   -0.00095   -0.00195
C17   1    0.712955    0.419097    0.256895    11.00000    0.02909    0.03158 =
         0.03100    0.00536    0.00517    0.00006
C16   1    0.617888    0.399479    0.279699    11.00000    0.02844    0.03026 =
         0.02940    0.00334    0.00009    0.00336
C15   1    0.535817    0.401886    0.385609    11.00000    0.02520    0.03191 =
         0.02434    0.00435   -0.00049    0.00090
C14   1    0.552720    0.423672    0.468996    11.00000    0.02787    0.03158 =
         0.02595    0.00374   -0.00069    0.00020
C19   1    0.692825    0.515056    0.684003    11.00000    0.03426    0.03059 =
         0.02690    0.00123   -0.00718   -0.00291
C24   1    0.795920    0.506927    0.607252    11.00000    0.02993    0.03978 =
         0.03431    0.00155   -0.00218   -0.00869
C23   1    0.781538    0.483901    0.532865    11.00000    0.02749    0.04196 =
         0.03023   -0.00057   -0.00052   -0.00237
C22   1    0.663683    0.468197    0.530594    11.00000    0.02606    0.03001 =
         0.02802    0.00552   -0.00482    0.00094
C21   1    0.561628    0.476910    0.607814    11.00000    0.02823    0.02830 =
         0.03305    0.00169   -0.00482   -0.00402
C20   1    0.575862    0.499916    0.684898    11.00000    0.03118    0.03158 =
         0.02998    0.00307   -0.00154   -0.00045
C26   1    0.619157    0.546845    0.838572    11.00000    0.04145    0.03498 =
         0.03317   -0.00219    0.00076   -0.00132
C27   1    0.438437    0.377917    0.389057    11.00000    0.02706    0.02827 =
         0.02846   -0.00090    0.00149   -0.00123
C31   1    0.451318    0.362801    0.519623    11.00000    0.02996    0.02999 =
         0.02912    0.00018    0.00109   -0.00307
C32   1    0.594658    0.353260    0.561360    11.00000    0.03501    0.03361 =
         0.03537    0.00466    0.00069    0.00093
C33   1    0.600174    0.336728    0.686427    11.00000    0.05005    0.04998 =
         0.03792    0.01046   -0.00341    0.00415
C28   1    0.287977    0.386432    0.353969    11.00000    0.02619    0.03416 =
         0.02954   -0.00162   -0.00081   -0.00102
C29   1    0.219865    0.404545    0.449235    11.00000    0.03153    0.04080 =
         0.03183   -0.00509    0.00026    0.00216
C30   1    0.077263    0.412475    0.397227    11.00000    0.03495    0.04269 =
         0.03919   -0.00455   -0.00259    0.00404
C1B   1    0.232514    0.299006    0.591853    11.00000    0.02771    0.02608 =
         0.02651   -0.00140    0.00129   -0.00237
C2B   1    0.292454    0.279559    0.675300    11.00000    0.03409    0.03235 =
         0.02846   -0.00049    0.00217    0.00196
C3B   1    0.356531    0.257127    0.627792    11.00000    0.03697    0.03121 =
         0.02865    0.00233    0.00063    0.00475
C4B   1    0.362056    0.253714    0.494144    11.00000    0.02955    0.03005 =
         0.03337   -0.00146    0.00222    0.00178
C5B   1    0.308856    0.273398    0.409227    11.00000    0.03124    0.03379 =
         0.02621    0.00134    0.00317   -0.00160
C6B   1    0.244129    0.295636    0.458931    11.00000    0.02778    0.02996 =
         0.02811    0.00038    0.00071   -0.00191
C25B  1    0.413795    0.225047    0.317403    11.00000    0.06194    0.03913 =
         0.03344   -0.00365    0.00431    0.01245
C7B   1    0.011571    0.367436    0.715160    11.00000    0.02443    0.03039 =
         0.02903   -0.00138   -0.00074   -0.00014
C8B   1    0.117660    0.356864    0.797588    11.00000    0.02562    0.02762 =
         0.02592   -0.00182    0.00005   -0.00205
C9B   1    0.190212    0.334720    0.759635    11.00000    0.02595    0.02914 =
         0.02587   -0.00028   -0.00098    0.00012
C10B  1    0.155013    0.322321    0.639237    11.00000    0.02721    0.02455 =
         0.02897   -0.00095    0.00262   -0.00373
C11B  1    0.044684    0.332496    0.561410    11.00000    0.03024    0.03230 =
         0.02806   -0.00395   -0.00053   -0.00184
C12B  1   -0.026639    0.355008    0.597527    11.00000    0.02573    0.03535 =
         0.03045   -0.00083   -0.00449   -0.00055
C13B  1   -0.105284    0.435345    0.931858    11.00000    0.02879    0.02757 =
         0.02809    0.00169    0.00111   -0.00026
C14B  1   -0.002287    0.416882    0.974868    11.00000    0.03047    0.02822 =
         0.02589    0.00046   -0.00120    0.00016
C15B  1    0.028866    0.395447    0.896669    11.00000    0.02676    0.02923 =
         0.02594    0.00027    0.00072   -0.00015
C16B  1   -0.042374    0.391506    0.775747    11.00000    0.02706    0.02778 =
         0.02548    0.00013   -0.00091   -0.00078
C17B  1   -0.143884    0.409448    0.731895    11.00000    0.02699    0.03334 =
         0.03045    0.00118   -0.00507   -0.00106
C18B  1   -0.174003    0.431047    0.810285    11.00000    0.02663    0.03207 =
         0.02976    0.00323   -0.00240    0.00326
C19B  1   -0.203660    0.504714    1.155168    11.00000    0.03493    0.02630 =
         0.02841    0.00312    0.00542    0.00191
C20B  1   -0.071979    0.494994    1.163318    11.00000    0.03108    0.02974 =
         0.03178    0.00184   -0.00084   -0.00243
C21B  1   -0.040987    0.472144    1.091704    11.00000    0.02598    0.03114 =
         0.03049    0.00347   -0.00083   -0.00004
C22B  1   -0.138322    0.459047    1.011569    11.00000    0.03055    0.02708 =
         0.02539    0.00349    0.00136    0.00144
C23B  1   -0.270692    0.469550    1.004441    11.00000    0.02714    0.03147 =
         0.02879    0.00313   -0.00103   -0.00097
C24B  1   -0.302886    0.491860    1.075426    11.00000    0.02902    0.03053 =
         0.03221    0.00186    0.00123    0.00198
C26B  1   -0.146118    0.540055    1.305639    11.00000    0.04403    0.03150 =
         0.03248   -0.00199    0.00118   -0.00012
C27B  1    0.136078    0.373388    0.923275    11.00000    0.02952    0.02650 =
         0.02486   -0.00173   -0.00243    0.00334
C31B  1    0.105553    0.356953    1.044657    11.00000    0.03162    0.03099 =
         0.02705    0.00075   -0.00390    0.00285
C32B  1   -0.019910    0.339059    1.034127    11.00000    0.03369    0.03626 =
         0.03211    0.00108    0.00002   -0.00164
C33B  1   -0.052843    0.327264    1.164286    11.00000    0.03998    0.04882 =
         0.03986    0.01033    0.00419    0.00102
C28B  1    0.281920    0.384683    0.945030    11.00000    0.02969    0.02817 =
         0.02658   -0.00056   -0.00331    0.00121
C29B  1    0.321494    0.405733    0.848090    11.00000    0.03353    0.03541 =
         0.03015    0.00165   -0.00185   -0.00203
C30B  1    0.472580    0.412183    0.860637    11.00000    0.03320    0.04051 =
         0.04318    0.00170    0.00156   -0.00341
O1B   3   -0.245962    0.526503    1.223233    11.00000    0.03749    0.02887 =
         0.03944   -0.00535    0.00307    0.00340
O1    3    0.718759    0.538177    0.754389    11.00000    0.03899    0.03782 =
         0.04109   -0.00687    0.00104   -0.00945
O2    3    0.323664    0.222078   -0.075539    11.00000    0.04601    0.03117 =
         0.04738   -0.00595   -0.00431    0.00147
O2B   3    0.422669    0.230475    0.454456    11.00000    0.04625    0.03648 =
         0.03003   -0.00299    0.00303    0.01122
HKLF    4
 
REM  shelx in P 21/n
REM R1 =  0.0600 for   7899 Fo > 4sig(Fo)  and  0.0846 for all  10987 data
REM    903 parameters refined using      0 restraints
 
END
 
WGHT      0.0737      0.1105
REM Highest difference peak  0.249,  deepest hole -0.239,  1-sigma level  0.053
Q1    1   0.4778  0.3888  0.3986  11.00000  0.05    0.25
Q2    1   0.1445  0.3663  0.8657  11.00000  0.05    0.22
Q3    1   0.0902  0.3817  0.9065  11.00000  0.05    0.21
Q4    1   0.7785  0.5073  0.7020  11.00000  0.05    0.21
Q5    1   0.3792  0.2121  0.5339  11.00000  0.05    0.20
Q6    1   0.2201  0.2944  0.5520  11.00000  0.05    0.20
Q7    1  -0.0174  0.3778  0.7404  11.00000  0.05    0.20
Q8    1   0.3842  0.2498  0.2654  11.00000  0.05    0.20
Q9    1   0.0194  0.3409  0.5772  11.00000  0.05    0.20
Q10   1  -0.0191  0.4151  0.4556  11.00000  0.05    0.19
Q11   1   0.8278  0.5348  0.7803  11.00000  0.05    0.19
Q12   1   0.7365  0.4708  0.5630  11.00000  0.05    0.19
Q13   1  -0.0331  0.3608  0.6682  11.00000  0.05    0.18
Q14   1   0.0120  0.3987  0.9303  11.00000  0.05    0.18
Q15   1   0.2745  0.3573  0.7823  11.00000  0.05    0.18
Q16   1   0.5826  0.3561  0.0599  11.00000  0.05    0.18
Q17   1   0.0750  0.3507  1.2868  11.00000  0.05    0.18
Q18   1   0.2910  0.2610  0.4867  11.00000  0.05    0.18
Q19   1   0.1051  0.3625  0.7176  11.00000  0.05    0.18
Q20   1   0.3291  0.2671  0.4500  11.00000  0.05    0.18
;
_cod_data_source_file            jp401004m_si_001.cif
_cod_data_source_block           384
_cod_depositor_comments
;
The following automatic conversions were performed:

'_exptl_absorpt_correction_type' value 'Multi-scan' changed to
'multi-scan' according to
/home/saulius/struct/CIF-dictionaries/cif_core.dic dictionary named
'cif_core.dic' version 2.4.2 from 2011-04-26.

Automatic conversion script
Id: cif_fix_values 1891 2012-01-12 08:04:46Z andrius 
;
_cod_original_sg_symbol_H-M      'P 21/c'
_cod_database_code               1511818
loop_
_symmetry_equiv_pos_as_xyz
'x, y, z'
'-x, y+1/2, -z+1/2'
'-x, -y, -z'
'x, -y-1/2, z-1/2'
loop_
_atom_site_label
_atom_site_fract_x
_atom_site_fract_y
_atom_site_fract_z
_atom_site_U_iso_or_equiv
_atom_site_adp_type
_atom_site_calc_flag
_atom_site_occupancy
_atom_site_type_symbol
C1 0.03013(13) 0.14257(7) 0.10038(10) 0.0216(2) Uani d 1 C
C13 0.26213(12) 0.14003(7) 0.27059(10) 0.0218(2) Uani d 1 C
C17 0.37087(13) 0.21819(7) 0.30555(11) 0.0243(3) Uani d 1 C
C18 0.34441(14) 0.28898(8) 0.20435(12) 0.0279(3) Uani d 1 C
C19 0.47825(15) 0.35300(8) 0.22455(12) 0.0289(3) Uani d 1 C
C14 0.28575(13) 0.07754(8) 0.38524(11) 0.0246(3) Uani d 1 C
C15 0.18723(14) -0.00347(8) 0.36264(12) 0.0283(3) Uani d 1 C
C16 0.20555(18) -0.05868(10) 0.48205(14) 0.0390(3) Uani d 1 C
H3 -0.1699(18) 0.1384(9) -0.0478(15) 0.028(4) Uiso d 1 H
H4 -0.3362(19) 0.2058(10) 0.0770(16) 0.035(4) Uiso d 1 H
H5 -0.2292(19) 0.2450(11) 0.2966(16) 0.039(4) Uiso d 1 H
H6 0.0394(18) 0.2217(10) 0.3914(16) 0.035(4) Uiso d 1 H
H9 0.0627(18) 0.0672(10) -0.1403(15) 0.033(4) Uiso d 1 H
H10 0.2902(18) -0.0001(10) -0.1705(15) 0.034(4) Uiso d 1 H
H12 0.5166(17) 0.0592(9) 0.1999(14) 0.025(3) Uiso d 1 H
H14A 0.3570(18) 0.2429(10) 0.3886(15) 0.033(4) Uiso d 1 H
H14B 0.4815(18) 0.1988(9) 0.3200(14) 0.028(4) Uiso d 1 H
H15A 0.333(2) 0.2632(12) 0.1174(18) 0.050(5) Uiso d 1 H
H15B 0.244(2) 0.3189(11) 0.2068(16) 0.038(4) Uiso d 1 H
H16A 0.450(2) 0.4060(12) 0.1721(17) 0.044(4) Uiso d 1 H
H16B 0.575(2) 0.3292(11) 0.2006(17) 0.042(4) Uiso d 1 H
H16C 0.5075(19) 0.3711(11) 0.3152(17) 0.040(4) Uiso d 1 H
H17A 0.2597(17) 0.1083(10) 0.4568(15) 0.030(4) Uiso d 1 H
H17B 0.4010(18) 0.0627(9) 0.4084(14) 0.030(4) Uiso d 1 H
H18A 0.072(2) 0.0115(11) 0.3341(16) 0.038(4) Uiso d 1 H
H18B 0.2169(19) -0.0380(10) 0.2932(16) 0.036(4) Uiso d 1 H
H19A 0.173(2) -0.0276(12) 0.5519(19) 0.053(5) Uiso d 1 H
H19B 0.321(2) -0.0765(12) 0.5126(18) 0.055(5) Uiso d 1 H
H19C 0.139(2) -0.1121(12) 0.4697(17) 0.049(5) Uiso d 1 H
C2 0.09139(12) 0.16598(7) 0.22827(11) 0.0228(2) Uani d 1 C
C6 -0.12593(13) 0.15778(7) 0.04323(11) 0.0244(3) Uani d 1 C
C5 -0.22041(14) 0.19630(8) 0.11616(12) 0.0280(3) Uani d 1 C
C4 -0.15941(14) 0.21892(8) 0.24333(13) 0.0302(3) Uani d 1 C
C3 -0.00299(14) 0.20450(8) 0.30043(12) 0.0276(3) Uani d 1 C
C9 0.28908(12) 0.09714(7) 0.14938(10) 0.0210(2) Uani d 1 C
C10 0.15408(12) 0.09996(7) 0.05098(10) 0.0206(2) Uani d 1 C
C11 0.15573(13) 0.06484(7) -0.06809(11) 0.0232(2) Uani d 1 C
C12 0.29146(13) 0.02592(7) -0.08652(10) 0.0232(2) Uani d 1 C
C7 0.42820(12) 0.02154(6) 0.01102(10) 0.0199(2) Uani d 1 C
C8 0.42424(12) 0.05924(7) 0.12986(10) 0.0213(2) Uani d 1 C
loop_
_atom_site_aniso_label
_atom_site_aniso_U_11
_atom_site_aniso_U_22
_atom_site_aniso_U_33
_atom_site_aniso_U_12
_atom_site_aniso_U_13
_atom_site_aniso_U_23
C1 0.0226(5) 0.0198(5) 0.0233(5) -0.0001(4) 0.0069(4) 0.0007(4)
C13 0.0211(5) 0.0244(5) 0.0201(5) 0.0021(4) 0.0051(4) -0.0019(4)
C17 0.0245(5) 0.0265(6) 0.0217(5) -0.0004(4) 0.0044(4) -0.0039(4)
C18 0.0299(6) 0.0262(6) 0.0260(6) -0.0009(4) 0.0030(5) -0.0004(4)
C19 0.0292(6) 0.0260(6) 0.0318(7) 0.0000(4) 0.0072(5) -0.0023(5)
C14 0.0245(5) 0.0288(6) 0.0202(5) 0.0020(4) 0.0047(4) 0.0002(4)
C15 0.0280(6) 0.0303(6) 0.0268(6) 0.0003(4) 0.0063(5) 0.0017(5)
C16 0.0405(7) 0.0399(8) 0.0372(7) -0.0014(6) 0.0100(6) 0.0112(6)
C2 0.0218(5) 0.0237(5) 0.0229(5) 0.0008(4) 0.0052(4) 0.0000(4)
C6 0.0225(5) 0.0248(5) 0.0254(6) -0.0004(4) 0.0041(4) 0.0002(4)
C5 0.0220(5) 0.0292(6) 0.0328(6) 0.0030(4) 0.0059(5) -0.0008(5)
C4 0.0269(6) 0.0324(6) 0.0334(6) 0.0048(5) 0.0110(5) -0.0026(5)
C3 0.0278(6) 0.0297(6) 0.0262(6) 0.0038(4) 0.0078(5) -0.0036(4)
C9 0.0232(5) 0.0205(5) 0.0196(5) -0.0005(4) 0.0055(4) -0.0004(4)
C10 0.0204(5) 0.0204(5) 0.0212(5) -0.0005(4) 0.0049(4) 0.0008(4)
C11 0.0212(5) 0.0265(5) 0.0214(5) -0.0010(4) 0.0036(4) -0.0017(4)
C12 0.0237(5) 0.0263(5) 0.0201(5) -0.0013(4) 0.0056(4) -0.0031(4)
C7 0.0209(5) 0.0191(5) 0.0205(5) -0.0018(4) 0.0062(4) -0.0002(4)
C8 0.0218(5) 0.0222(5) 0.0200(5) 0.0001(4) 0.0044(4) -0.0005(4)
loop_
_atom_type_symbol
_atom_type_description
_atom_type_scat_dispersion_real
_atom_type_scat_dispersion_imag
_atom_type_scat_source
C C 0.0033 0.0016 'International Tables Vol C Tables 4.2.6.8 and 6.1.1.4'
H H 0 0 'International Tables Vol C Tables 4.2.6.8 and 6.1.1.4'
loop_
_geom_angle_atom_site_label_1
_geom_angle_atom_site_label_2
_geom_angle_atom_site_label_3
_geom_angle
_geom_angle_site_symmetry_3
C6 C1 C2 120.82(10) .
C6 C1 C10 130.90(10) .
C2 C1 C10 108.23(9) .
C2 C13 C9 101.04(8) .
C2 C13 C14 110.89(9) .
C9 C13 C14 112.06(9) .
C2 C13 C17 112.03(9) .
C9 C13 C17 110.61(9) .
C14 C13 C17 109.97(9) .
C18 C17 C13 114.39(9) .
C18 C17 H14A 108.5(9) .
C13 C17 H14A 109.4(9) .
C18 C17 H14B 108.8(9) .
C13 C17 H14B 108.9(8) .
H14A C17 H14B 106.5(12) .
C19 C18 C17 112.59(10) .
C19 C18 H15A 108.3(11) .
C17 C18 H15A 109.5(11) .
C19 C18 H15B 109.9(10) .
C17 C18 H15B 108.7(10) .
H15A C18 H15B 107.8(14) .
C18 C19 H16A 112.1(10) .
C18 C19 H16B 112.8(10) .
H16A C19 H16B 106.5(14) .
C18 C19 H16C 110.8(10) .
H16A C19 H16C 106.9(13) .
H16B C19 H16C 107.5(13) .
C15 C14 C13 115.39(9) .
C15 C14 H17A 108.3(9) .
C13 C14 H17A 107.1(9) .
C15 C14 H17B 110.3(8) .
C13 C14 H17B 107.0(8) .
H17A C14 H17B 108.4(12) .
C16 C15 C14 112.87(11) .
C16 C15 H18A 107.4(10) .
C14 C15 H18A 110.3(9) .
C16 C15 H18B 108.6(9) .
C14 C15 H18B 109.7(9) .
H18A C15 H18B 107.8(13) .
C15 C16 H19A 111.1(11) .
C15 C16 H19B 109.7(11) .
H19A C16 H19B 108.6(16) .
C15 C16 H19C 114.1(10) .
H19A C16 H19C 104.6(15) .
H19B C16 H19C 108.5(15) .
C3 C2 C1 120.47(10) .
C3 C2 C13 128.29(10) .
C1 C2 C13 111.19(9) .
C1 C6 C5 118.52(11) .
C1 C6 H3 120.1(9) .
C5 C6 H3 121.3(9) .
C4 C5 C6 120.48(11) .
C4 C5 H4 119.8(9) .
C6 C5 H4 119.7(9) .
C5 C4 C3 121.14(11) .
C5 C4 H5 120.1(9) .
C3 C4 H5 118.7(9) .
C2 C3 C4 118.57(11) .
C2 C3 H6 121.2(9) .
C4 C3 H6 120.2(9) .
C8 C9 C10 120.82(10) .
C8 C9 C13 128.04(10) .
C10 C9 C13 111.14(9) .
C11 C10 C9 119.85(10) .
C11 C10 C1 131.77(10) .
C9 C10 C1 108.38(9) .
C10 C11 C12 119.01(10) .
C10 C11 H9 121.6(9) .
C12 C11 H9 119.3(9) .
C11 C12 C7 122.28(10) .
C11 C12 H10 118.2(9) .
C7 C12 H10 119.5(9) .
C8 C7 C12 117.50(9) .
C8 C7 C7 121.37(12) 3_655
C12 C7 C7 121.14(12) 3_655
C9 C8 C7 120.53(10) .
C9 C8 H12 118.7(8) .
C7 C8 H12 120.8(8) .
loop_
_geom_bond_atom_site_label_1
_geom_bond_atom_site_label_2
_geom_bond_site_symmetry_2
_geom_bond_distance
C1 C6 . 1.3928(15)
C1 C2 . 1.4036(16)
C1 C10 . 1.4699(15)
C13 C2 . 1.5230(15)
C13 C9 . 1.5234(14)
C13 C14 . 1.5468(16)
C13 C17 . 1.5476(16)
C17 C18 . 1.5313(16)
C17 H14A . 1.000(16)
C17 H14B . 0.997(15)
C18 C19 . 1.5239(17)
C18 H15A . 0.998(19)
C18 H15B . 1.000(17)
C19 H16A . 1.003(18)
C19 H16B . 1.013(18)
C19 H16C . 0.988(17)
C14 C15 . 1.5253(17)
C14 H17A . 0.973(16)
C14 H17B . 1.015(15)
C15 C16 . 1.5211(18)
C15 H18A . 1.015(17)
C15 H18B . 0.999(17)
C16 H19A . 0.98(2)
C16 H19B . 1.03(2)
C16 H19C . 1.014(19)
C2 C3 . 1.3879(15)
C6 C5 . 1.3941(16)
C6 H3 . 1.012(15)
C5 C4 . 1.3931(18)
C5 H4 . 1.022(16)
C4 C3 . 1.3935(17)
C4 H5 . 1.010(18)
C3 H6 . 0.999(17)
C9 C8 . 1.3831(15)
C9 C10 . 1.4022(15)
C10 C11 . 1.3896(15)
C11 C12 . 1.3906(15)
C11 H9 . 0.994(16)
C12 C7 . 1.4085(15)
C12 H10 . 0.984(16)
C7 C8 . 1.4082(15)
C7 C7 3_655 1.494(2)
C8 H12 . 0.976(14)
loop_
_geom_torsion_atom_site_label_1
_geom_torsion_atom_site_label_2
_geom_torsion_atom_site_label_3
_geom_torsion_atom_site_label_4
_geom_torsion
_geom_torsion_site_symmetry_1
_geom_torsion_site_symmetry_4
C2 C13 C17 C18 -49.78(13) . .
C9 C13 C17 C18 62.12(12) . .
C14 C13 C17 C18 -173.58(9) . .
C13 C17 C18 C19 -165.01(10) . .
C2 C13 C14 C15 56.60(13) . .
C9 C13 C14 C15 -55.47(12) . .
C17 C13 C14 C15 -178.94(9) . .
C13 C14 C15 C16 -175.22(10) . .
C6 C1 C2 C3 0.28(17) . .
C10 C1 C2 C3 -177.34(10) . .
C6 C1 C2 C13 177.91(10) . .
C10 C1 C2 C13 0.30(12) . .
C9 C13 C2 C3 176.52(11) . .
C14 C13 C2 C3 57.57(15) . .
C17 C13 C2 C3 -65.71(15) . .
C9 C13 C2 C1 -0.89(12) . .
C14 C13 C2 C1 -119.83(10) . .
C17 C13 C2 C1 116.88(10) . .
C2 C1 C6 C5 -0.43(17) . .
C10 C1 C6 C5 176.58(11) . .
C1 C6 C5 C4 0.00(18) . .
C6 C5 C4 C3 0.60(19) . .
C1 C2 C3 C4 0.30(18) . .
C13 C2 C3 C4 -176.88(11) . .
C5 C4 C3 C2 -0.74(19) . .
C2 C13 C9 C8 -179.08(10) . .
C14 C13 C9 C8 -60.98(14) . .
C17 C13 C9 C8 62.12(14) . .
C2 C13 C9 C10 1.21(11) . .
C14 C13 C9 C10 119.31(10) . .
C17 C13 C9 C10 -117.59(10) . .
C8 C9 C10 C11 -0.44(16) . .
C13 C9 C10 C11 179.30(9) . .
C8 C9 C10 C1 179.15(9) . .
C13 C9 C10 C1 -1.11(12) . .
C6 C1 C10 C11 2.7(2) . .
C2 C1 C10 C11 -179.98(11) . .
C6 C1 C10 C9 -176.79(11) . .
C2 C1 C10 C9 0.50(12) . .
C9 C10 C11 C12 1.21(16) . .
C1 C10 C11 C12 -178.27(11) . .
C10 C11 C12 C7 -0.66(17) . .
C11 C12 C7 C8 -0.66(16) . .
C11 C12 C7 C7 179.30(12) . 3_655
C10 C9 C8 C7 -0.93(16) . .
C13 C9 C8 C7 179.38(10) . .
C12 C7 C8 C9 1.45(16) . .
C7 C7 C8 C9 -178.51(11) 3_655 .
