#------------------------------------------------------------------------------
#$Date: 2016-10-08 00:51:17 +0300 (Sat, 08 Oct 2016) $
#$Revision: 187027 $
#$URL: file:///home/coder/svn-repositories/cod/cif/1/54/36/1543632.cif $
#------------------------------------------------------------------------------
#
# This file is available in the Crystallography Open Database (COD),
# http://www.crystallography.net/
#
# All data on this site have been placed in the public domain by the
# contributors.
#
data_1543632
loop_
_publ_author_name
'Lehnherr, Dan'
'Chen, Chen'
'Pedramrazi, Zahra'
'DeBlase, Catherine R.'
'Alzola, Joaquin M.'
'Keresztes, Ivan'
'Lobkovsky, Emil B.'
'Crommie, Michael F.'
'Dichtel, William R.'
_publ_section_title
;
 Sequence-defined oligo(ortho-arylene) foldamers derived from the
 benzannulation of ortho(arylene ethynylene)s
;
_journal_issue                   10
_journal_name_full               'Chem. Sci.'
_journal_page_first              6357
_journal_paper_doi               10.1039/C6SC02520J
_journal_volume                  7
_journal_year                    2016
_chemical_formula_moiety         'C70 H46'
_chemical_formula_sum            'C70 H46'
_chemical_formula_weight         887.07
_chemical_name_systematic
; 
 ? 
;
_space_group_IT_number           15
_symmetry_cell_setting           monoclinic
_symmetry_space_group_name_Hall  '-C 2yc'
_symmetry_space_group_name_H-M   'C 1 2/c 1'
_atom_sites_solution_hydrogens   difmap
_atom_sites_solution_primary     direct
_atom_sites_solution_secondary   difmap
_audit_creation_method           SHELXL-97
_audit_update_record
;
2016-06-07 deposited with the CCDC.
2016-07-08 downloaded from the CCDC.
;
_cell_angle_alpha                90.00
_cell_angle_beta                 98.6360(10)
_cell_angle_gamma                90.00
_cell_formula_units_Z            8
_cell_length_a                   22.5254(5)
_cell_length_b                   17.7308(4)
_cell_length_c                   24.2495(5)
_cell_measurement_reflns_used    7938
_cell_measurement_temperature    223(2)
_cell_measurement_theta_max      26.96
_cell_measurement_theta_min      2.30
_cell_volume                     9575.3(4)
_computing_cell_refinement       'Bruker SAINT+'
_computing_data_collection       'Bruker APEX2'
_computing_data_reduction        'Bruker SAINT+'
_computing_molecular_graphics    'Bruker SHELXTL'
_computing_publication_material  'Bruker SHELXTL'
_computing_structure_refinement  'SHELXL-97 (Sheldrick, 1997)'
_computing_structure_solution    'SHELXS-97 (Sheldrick, 1990)'
_diffrn_ambient_temperature      223(2)
_diffrn_measured_fraction_theta_full 0.989
_diffrn_measured_fraction_theta_max 0.989
_diffrn_measurement_device_type  'Bruker X8 APEX II diffractometer'
_diffrn_measurement_method       'phi and omega scans'
_diffrn_radiation_monochromator  graphite
_diffrn_radiation_source         'fine-focus sealed tube'
_diffrn_radiation_type           MoK\a
_diffrn_radiation_wavelength     0.71073
_diffrn_reflns_av_R_equivalents  0.0396
_diffrn_reflns_av_sigmaI/netI    0.0474
_diffrn_reflns_limit_h_max       28
_diffrn_reflns_limit_h_min       -28
_diffrn_reflns_limit_k_max       22
_diffrn_reflns_limit_k_min       -20
_diffrn_reflns_limit_l_max       30
_diffrn_reflns_limit_l_min       -30
_diffrn_reflns_number            39013
_diffrn_reflns_theta_full        26.37
_diffrn_reflns_theta_max         26.37
_diffrn_reflns_theta_min         1.76
_diffrn_standards_number         0
_exptl_absorpt_coefficient_mu    0.070
_exptl_absorpt_correction_T_max  0.9965
_exptl_absorpt_correction_T_min  0.9594
_exptl_absorpt_correction_type   multi-scan
_exptl_absorpt_process_details   SADABS
_exptl_crystal_colour            colourless
_exptl_crystal_density_diffrn    1.231
_exptl_crystal_density_method    'not measured'
_exptl_crystal_description       plate
_exptl_crystal_F_000             3728
_exptl_crystal_size_max          0.60
_exptl_crystal_size_mid          0.20
_exptl_crystal_size_min          0.05
_refine_diff_density_max         0.164
_refine_diff_density_min         -0.190
_refine_diff_density_rms         0.038
_refine_ls_extinction_method     none
_refine_ls_goodness_of_fit_ref   1.028
_refine_ls_hydrogen_treatment    refall
_refine_ls_matrix_type           full
_refine_ls_number_parameters     815
_refine_ls_number_reflns         9682
_refine_ls_number_restraints     0
_refine_ls_restrained_S_all      1.028
_refine_ls_R_factor_all          0.1016
_refine_ls_R_factor_gt           0.0417
_refine_ls_shift/su_max          0.001
_refine_ls_shift/su_mean         0.000
_refine_ls_structure_factor_coef Fsqd
_refine_ls_weighting_details
'calc w=1/[\s^2^(Fo^2^)+(0.0364P)^2^+6.0071P] where P=(Fo^2^+2Fc^2^)/3'
_refine_ls_weighting_scheme      calc
_refine_ls_wR_factor_gt          0.0836
_refine_ls_wR_factor_ref         0.1120
_reflns_number_gt                5632
_reflns_number_total             9682
_reflns_threshold_expression     >2sigma(I)
_iucr_refine_instructions_details
;
TITL dl6 in C2/c
CELL 0.71073  22.5254  17.7308  24.2495  90.000  98.636  90.000
ZERR    8.00   0.0005   0.0004   0.0005   0.000   0.001   0.000
LATT  7
SYMM -X, Y, 0.5-Z
SFAC C H
UNIT 560 368
TEMP -50
SIZE 0.05 0.20 0.60
SHEL 100 .8
OMIT -1 1 1
OMIT 0 0 2
L.S. 8
ACTA
 
WGHT    0.036400    6.007100
FVAR       0.04757
C1    1    0.064691    0.091731    0.017564    11.00000    0.04480    0.03948 =
         0.05152    0.00473   -0.00182   -0.00005
C2    1    0.010249    0.126102   -0.001231    11.00000    0.03868    0.05760 =
         0.07739    0.01082   -0.00709   -0.00318
H2    2   -0.027512    0.093782   -0.004331    11.00000    0.07996
C3    1    0.007928    0.201513   -0.013908    11.00000    0.04489    0.05942 =
         0.07969    0.01532   -0.00496    0.01083
H3    2   -0.030311    0.227466   -0.026281    11.00000    0.07475
C4    1    0.059877    0.243375   -0.007582    11.00000    0.05574    0.04157 =
         0.06535    0.01443   -0.00054    0.00702
H4    2    0.058643    0.297551   -0.014428    11.00000    0.06482
C5    1    0.114541    0.209596    0.010899    11.00000    0.04349    0.04137 =
         0.04688    0.00781    0.00088   -0.00005
H5    2    0.152605    0.241757    0.014500    11.00000    0.05547
C6    1    0.117712    0.133134    0.023693    11.00000    0.04014    0.03675 =
         0.02964    0.00287    0.00083    0.00029
C7    1    0.177398    0.096764    0.039867    11.00000    0.03758    0.03199 =
         0.03057   -0.00127    0.00113   -0.00147
C8    1    0.221184    0.110287    0.007104    11.00000    0.04496    0.04057 =
         0.03335    0.00587    0.00390    0.00143
H8    2    0.211888    0.145170   -0.025830    11.00000    0.04598
C9    1    0.277925    0.074534    0.016043    11.00000    0.04085    0.03990 =
         0.03355   -0.00385    0.00824   -0.00215
C10   1    0.322499    0.086819   -0.018599    11.00000    0.05334    0.05295 =
         0.04169    0.00147    0.01588   -0.00382
H10   2    0.312562    0.123804   -0.050573    11.00000    0.05347
C11   1    0.375858    0.049266   -0.009004    11.00000    0.04687    0.06819 =
         0.04713   -0.00678    0.01793   -0.00328
H11   2    0.407420    0.058789   -0.033123    11.00000    0.05968
C12   1    0.387462   -0.002630    0.034767    11.00000    0.04206    0.06789 =
         0.04320   -0.00697    0.00773    0.00642
H12   2    0.426351   -0.029346    0.041044    11.00000    0.06990
C13   1    0.345562   -0.015992    0.068838    11.00000    0.03951    0.05400 =
         0.03711   -0.00139    0.00454    0.00565
H13   2    0.352140   -0.052028    0.099376    11.00000    0.05069
C14   1    0.289738    0.022303    0.060538    11.00000    0.03477    0.03855 =
         0.02936   -0.00526    0.00340   -0.00168
C15   1    0.244992    0.009950    0.094381    11.00000    0.03805    0.03358 =
         0.03248    0.00064    0.00254    0.00118
H15   2    0.252930   -0.026287    0.126335    11.00000    0.04253
C16   1    0.189774    0.045066    0.085682    11.00000    0.03563    0.03079 =
         0.02930   -0.00242    0.00321   -0.00190
C17   1    0.144905    0.022898    0.122254    11.00000    0.02977    0.03572 =
         0.02984    0.00432   -0.00066   -0.00181
C18   1    0.132725   -0.054315    0.124219    11.00000    0.04036    0.03832 =
         0.04134    0.00413    0.00124   -0.00282
H18   2    0.153656   -0.088218    0.100284    11.00000    0.03914
C19   1    0.091531   -0.082952    0.155799    11.00000    0.04881    0.04233 =
         0.05342    0.01117   -0.00144   -0.01226
H19   2    0.083760   -0.133367    0.154634    11.00000    0.05897
C20   1    0.061729   -0.034621    0.186759    11.00000    0.03934    0.06047 =
         0.04588    0.01103    0.00412   -0.01322
H20   2    0.031133   -0.055027    0.211768    11.00000    0.06701
C21   1    0.073216    0.041480    0.185656    11.00000    0.03048    0.05702 =
         0.03850    0.00224    0.00464   -0.00618
H21   2    0.051879    0.077175    0.208938    11.00000    0.05073
C22   1    0.114602    0.072189    0.153819    11.00000    0.02463    0.04139 =
         0.03228    0.00164   -0.00036   -0.00212
C23   1    0.120175    0.156003    0.154000    11.00000    0.03132    0.04138 =
         0.02864    0.00024    0.00645    0.00402
C24   1    0.067592    0.197102    0.142386    11.00000    0.03398    0.05735 =
         0.03745    0.00257    0.00639    0.00863
H24   2    0.029005    0.169455    0.132692    11.00000    0.04562
C25   1    0.066620    0.276705    0.141682    11.00000    0.05230    0.05666 =
         0.03269    0.00825    0.00682    0.02450
C26   1    0.012006    0.318889    0.134251    11.00000    0.06011    0.08401 =
         0.05324    0.01534    0.01068    0.03397
H26   2   -0.025003    0.286661    0.123915    11.00000    0.06520
C27   1    0.013942    0.395949    0.137055    11.00000    0.09758    0.08499 =
         0.06318    0.02767    0.02239    0.06306
H27   2   -0.023738    0.424631    0.133434    11.00000    0.08326
C28   1    0.068997    0.434684    0.146463    11.00000    0.11695    0.06217 =
         0.06155    0.02743    0.03365    0.04368
H28   2    0.067747    0.492643    0.146504    11.00000    0.10958
C29   1    0.121579    0.396230    0.152574    11.00000    0.09260    0.04235 =
         0.04538    0.01707    0.02401    0.02313
H29   2    0.161190    0.423979    0.158143    11.00000    0.08718
C30   1    0.121657    0.316192    0.151131    11.00000    0.05856    0.04452 =
         0.03060    0.00847    0.01334    0.01575
C31   1    0.174856    0.273555    0.162500    11.00000    0.04658    0.03504 =
         0.03259    0.00350    0.01091    0.00342
H31   2    0.213936    0.301760    0.170808    11.00000    0.04617
C32   1    0.175657    0.196273    0.166329    11.00000    0.03473    0.03367 =
         0.02521    0.00109    0.00835    0.00188
C33   1    0.235456    0.159839    0.182969    11.00000    0.02916    0.02819 =
         0.03381   -0.00639    0.00597   -0.00291
C34   1    0.280025    0.178600    0.150734    11.00000    0.03693    0.03698 =
         0.04226   -0.00472    0.01161   -0.00521
H34   2    0.268601    0.213850    0.118216    11.00000    0.05420
C35   1    0.337067    0.148626    0.161442    11.00000    0.03250    0.04443 =
         0.05806   -0.01278    0.01715   -0.00712
H35   2    0.367128    0.161589    0.136971    11.00000    0.05385
C36   1    0.351776    0.099899    0.205608    11.00000    0.02902    0.04040 =
         0.06033   -0.01384    0.00748    0.00075
H36   2    0.392788    0.078232    0.214257    11.00000    0.05691
C37   1    0.308996    0.082245    0.238877    11.00000    0.03389    0.03277 =
         0.04097   -0.00521    0.00207    0.00262
H37   2    0.319155    0.049537    0.272556    11.00000    0.03227
C38   1    0.250188    0.111118    0.228738    11.00000    0.02808    0.02545 =
         0.03393   -0.00677    0.00414    0.00014
C39   1    0.208233    0.083435    0.266530    11.00000    0.02808    0.02723 =
         0.02878   -0.00133   -0.00103    0.00268
C40   1    0.204394    0.006520    0.272562    11.00000    0.03725    0.02790 =
         0.03828   -0.00272    0.00349    0.00330
H40   2    0.228080   -0.026356    0.250719    11.00000    0.03735
C41   1    0.166802   -0.028310    0.306299    11.00000    0.03716    0.02972 =
         0.03513    0.00067   -0.00275    0.00001
C42   1    0.163163   -0.107773    0.311623    11.00000    0.05438    0.03079 =
         0.05264    0.00226    0.00306   -0.00243
H42   2    0.189423   -0.140183    0.289839    11.00000    0.05063
C43   1    0.125249   -0.139064    0.343951    11.00000    0.06523    0.03168 =
         0.06439    0.00859    0.00230   -0.00624
H43   2    0.122472   -0.194054    0.347831    11.00000    0.06940
C44   1    0.089358   -0.093543    0.372824    11.00000    0.05786    0.04638 =
         0.05632    0.01473    0.00683   -0.01429
H44   2    0.063325   -0.115930    0.396481    11.00000    0.06610
C45   1    0.091568   -0.016689    0.368603    11.00000    0.04531    0.04272 =
         0.04659    0.00548    0.00715   -0.00684
H45   2    0.066667    0.017342    0.387216    11.00000    0.04867
C46   1    0.130147    0.017758    0.335025    11.00000    0.03473    0.03183 =
         0.03455    0.00280   -0.00066   -0.00483
C47   1    0.134706    0.096598    0.329106    11.00000    0.03307    0.03213 =
         0.03628   -0.00124    0.00537    0.00139
H47   2    0.112099    0.128576    0.350167    11.00000    0.03980
C48   1    0.172845    0.130495    0.297216    11.00000    0.02542    0.02779 =
         0.02828   -0.00003   -0.00055    0.00141
C49   1    0.174599    0.214427    0.296757    11.00000    0.03123    0.02790 =
         0.02413    0.00066    0.00660    0.00248
C50   1    0.120314    0.253544    0.283028    11.00000    0.03228    0.03472 =
         0.03087    0.00071    0.00668    0.00405
H50   2    0.082695    0.223025    0.273112    11.00000    0.03745
C51   1    0.117999    0.331320    0.281982    11.00000    0.04216    0.03582 =
         0.03602    0.00288    0.00849    0.01456
H51   2    0.079817    0.357890    0.272440    11.00000    0.04718
C52   1    0.170541    0.372419    0.293349    11.00000    0.05214    0.02524 =
         0.03647    0.00025    0.00760    0.00563
H52   2    0.169942    0.429745    0.291759    11.00000    0.05528
C53   1    0.224526    0.334932    0.308101    11.00000    0.04375    0.02799 =
         0.03338   -0.00088    0.00526   -0.00115
H53   2    0.263431    0.365028    0.317799    11.00000    0.04312
C54   1    0.227424    0.256651    0.312142    11.00000    0.03265    0.02565 =
         0.02565    0.00043    0.00607    0.00226
C55   1    0.285872    0.221926    0.336960    11.00000    0.03201    0.02404 =
         0.03003   -0.00279    0.00398   -0.00084
C56   1    0.335835    0.231914    0.311852    11.00000    0.03475    0.02907 =
         0.03332    0.00124    0.00514   -0.00345
H56   2    0.332036    0.262077    0.275720    11.00000    0.04085
C57   1    0.392420    0.201081    0.333756    11.00000    0.03242    0.02936 =
         0.03461   -0.00479    0.00517   -0.00306
C58   1    0.444124    0.211397    0.308004    11.00000    0.03684    0.05143 =
         0.04210    0.00347    0.01124   -0.00122
H58   2    0.439925    0.243479    0.273300    11.00000    0.05130
C59   1    0.497327    0.178989    0.329622    11.00000    0.03193    0.06131 =
         0.05720   -0.00072    0.01182   -0.00075
H59   2    0.533417    0.187041    0.311573    11.00000    0.06449
C60   1    0.501854    0.134527    0.377931    11.00000    0.03019    0.04822 =
         0.05593   -0.00531   -0.00011    0.00335
H60   2    0.540804    0.111144    0.392828    11.00000    0.04727
C61   1    0.453159    0.124559    0.404424    11.00000    0.03657    0.03790 =
         0.04256   -0.00095    0.00022    0.00152
H61   2    0.456290    0.095037    0.438908    11.00000    0.03858
C62   1    0.396993    0.157214    0.382900    11.00000    0.03072    0.02795 =
         0.03542   -0.00494    0.00232   -0.00050
C63   1    0.345477    0.148465    0.409009    11.00000    0.03931    0.03440 =
         0.03190    0.00294    0.00398    0.00155
H63   2    0.348494    0.120376    0.444417    11.00000    0.04579
C64   1    0.290958    0.180838    0.388572    11.00000    0.03323    0.02879 =
         0.03069   -0.00141    0.00383   -0.00100
C65   1    0.240848    0.175558    0.421751    11.00000    0.03190    0.04456 =
         0.02727    0.00272    0.00171    0.00033
C66   1    0.227390    0.106971    0.444879    11.00000    0.04055    0.05123 =
         0.04138    0.01378    0.00670    0.00068
H66   2    0.250231    0.058795    0.435574    11.00000    0.05038
C67   1    0.182277    0.102504    0.477766    11.00000    0.04703    0.07718 =
         0.05130    0.02609    0.01048   -0.00526
H67   2    0.171326    0.052881    0.491644    11.00000    0.08164
C68   1    0.150470    0.165690    0.487894    11.00000    0.04140    0.10405 =
         0.05416    0.01593    0.01868    0.00559
H68   2    0.117238    0.164247    0.511890    11.00000    0.08301
C69   1    0.163122    0.234264    0.465319    11.00000    0.04554    0.07637 =
         0.04237   -0.00106    0.01067    0.01142
H69   2    0.139528    0.280206    0.471869    11.00000    0.06715
C70   1    0.208153    0.239342    0.432640    11.00000    0.03868    0.05024 =
         0.03260   -0.00208    0.00641    0.00415
H70   2    0.217935    0.290523    0.418187    11.00000    0.05000
H1    2    0.066155    0.037220    0.025756    11.00000    0.05076
HKLF 4
 
REM  dl6 in C2/c
REM R1 =  0.0417 for   5632 Fo > 4sig(Fo)  and  0.1016 for all   9682 data
REM    815 parameters refined using      0 restraints
 
END  
     
WGHT      0.0344      6.2394 
REM Highest difference peak  0.164,  deepest hole -0.190,  1-sigma level  0.038
Q1    1   0.0401  0.4117  0.1194  11.00000  0.05    0.16
Q2    1   0.2072  0.1775  0.1768  11.00000  0.05    0.16
Q3    1   0.2501  0.1653  0.2195  11.00000  0.05    0.16
Q4    1  -0.0102  0.3654  0.1160  11.00000  0.05    0.15
Q5    1   0.1520  0.2385  0.2747  11.00000  0.05    0.15
Q6    1   0.2574  0.0228  0.4123  11.00000  0.05    0.15
Q7    1   0.0950  0.2927  0.1308  11.00000  0.05    0.14
Q8    1   0.2659  0.0728  0.4592  11.00000  0.05    0.14
Q9    1  -0.0461  0.3994  0.1210  11.00000  0.05    0.14
Q10   1   0.3164 -0.0460  0.1439  11.00000  0.05    0.14
Q11   1   0.2498 -0.0357  0.1909  11.00000  0.05    0.14
Q12   1   0.2060  0.1235  0.0391  11.00000  0.05    0.14
Q13   1   0.2359  0.1190  0.1986  11.00000  0.05    0.14
Q14   1   0.1560  0.2399  0.3156  11.00000  0.05    0.14
Q15   1   0.4678 -0.0186  0.2289  11.00000  0.05    0.13
Q16   1   0.3676  0.2112  0.2274  11.00000  0.05    0.13
Q17   1   0.1769  0.0386  0.1217  11.00000  0.05    0.13
Q18   1   0.1480  0.1784  0.1411  11.00000  0.05    0.13
Q19   1   0.2053  0.2362  0.2897  11.00000  0.05    0.13
Q20   1   0.1386  0.1168  0.2978  11.00000  0.05    0.13
;
_cod_data_source_file            c6sc02520j2.cif
_cod_data_source_block           dl6
_cod_depositor_comments
;
The following automatic conversions were performed:

'_symmetry_cell_setting' value 'Monoclinic' changed to 'monoclinic'
according to
/usr/data/users/saulius/crontab/automatic-downloads/rss-feeds/RSC/lib/dictionaries/cif_core.dic
dictionary named 'cif_core.dic' version 2.4.2 from 2011-04-26.

Automatic conversion script
Id: cif_fix_values 4268 2015-11-12 08:31:59Z antanas 

 Adding full bibliography for 1543631--1543639.cif.
;
_cod_original_sg_symbol_H-M      C2/c
_cod_database_code               1543632
loop_
_symmetry_equiv_pos_as_xyz
'x, y, z'
'-x, y, -z+1/2'
'x+1/2, y+1/2, z'
'-x+1/2, y+1/2, -z+1/2'
'-x, -y, -z'
'x, -y, z-1/2'
'-x+1/2, -y+1/2, -z'
'x+1/2, -y+1/2, z-1/2'
loop_
_atom_site_label
_atom_site_type_symbol
_atom_site_fract_x
_atom_site_fract_y
_atom_site_fract_z
_atom_site_U_iso_or_equiv
_atom_site_adp_type
_atom_site_occupancy
_atom_site_symmetry_multiplicity
_atom_site_calc_flag
C1 C 0.06469(9) 0.09173(13) 0.01756(9) 0.0462(5) Uani 1 1 d
C2 C 0.01025(10) 0.12610(14) -0.00123(11) 0.0595(7) Uani 1 1 d
H2 H -0.0275(11) 0.0938(14) -0.0043(10) 0.080(8) Uiso 1 1 d
C3 C 0.00793(11) 0.20151(15) -0.01391(11) 0.0628(7) Uani 1 1 d
H3 H -0.0303(10) 0.2275(13) -0.0263(9) 0.075(7) Uiso 1 1 d
C4 C 0.05988(10) 0.24337(14) -0.00758(10) 0.0552(6) Uani 1 1 d
H4 H 0.0586(9) 0.2976(13) -0.0144(9) 0.065(7) Uiso 1 1 d
C5 C 0.11454(10) 0.20960(12) 0.01090(9) 0.0445(5) Uani 1 1 d
H5 H 0.1526(9) 0.2418(12) 0.0145(8) 0.055(6) Uiso 1 1 d
C6 C 0.11771(8) 0.13313(11) 0.02369(7) 0.0360(5) Uani 1 1 d
C7 C 0.17740(8) 0.09676(10) 0.03987(7) 0.0338(4) Uani 1 1 d
C8 C 0.22118(9) 0.11029(12) 0.00710(8) 0.0398(5) Uani 1 1 d
H8 H 0.2119(8) 0.1452(11) -0.0258(8) 0.046(5) Uiso 1 1 d
C9 C 0.27792(9) 0.07453(11) 0.01604(8) 0.0378(5) Uani 1 1 d
C10 C 0.32250(10) 0.08682(13) -0.01860(9) 0.0484(5) Uani 1 1 d
H10 H 0.3126(9) 0.1238(12) -0.0506(9) 0.053(6) Uiso 1 1 d
C11 C 0.37586(10) 0.04927(14) -0.00900(10) 0.0530(6) Uani 1 1 d
H11 H 0.4074(9) 0.0588(12) -0.0331(9) 0.060(6) Uiso 1 1 d
C12 C 0.38746(10) -0.00263(14) 0.03477(9) 0.0509(6) Uani 1 1 d
H12 H 0.4264(10) -0.0293(13) 0.0410(9) 0.070(7) Uiso 1 1 d
C13 C 0.34556(9) -0.01599(13) 0.06884(9) 0.0437(5) Uani 1 1 d
H13 H 0.3521(8) -0.0520(11) 0.0994(8) 0.051(6) Uiso 1 1 d
C14 C 0.28974(8) 0.02230(11) 0.06054(7) 0.0344(4) Uani 1 1 d
C15 C 0.24499(8) 0.00995(11) 0.09438(8) 0.0350(4) Uani 1 1 d
H15 H 0.2529(8) -0.0263(11) 0.1263(8) 0.043(5) Uiso 1 1 d
C16 C 0.18977(8) 0.04507(10) 0.08568(7) 0.0321(4) Uani 1 1 d
C17 C 0.14490(8) 0.02290(11) 0.12225(7) 0.0323(4) Uani 1 1 d
C18 C 0.13272(9) -0.05432(12) 0.12422(9) 0.0405(5) Uani 1 1 d
H18 H 0.1537(8) -0.0882(10) 0.1003(7) 0.039(5) Uiso 1 1 d
C19 C 0.09153(10) -0.08295(14) 0.15580(9) 0.0491(6) Uani 1 1 d
H19 H 0.0838(9) -0.1334(13) 0.1546(9) 0.059(7) Uiso 1 1 d
C20 C 0.06173(10) -0.03462(13) 0.18676(9) 0.0488(6) Uani 1 1 d
H20 H 0.0311(9) -0.0550(12) 0.2118(9) 0.067(7) Uiso 1 1 d
C21 C 0.07322(9) 0.04148(13) 0.18566(8) 0.0421(5) Uani 1 1 d
H21 H 0.0519(9) 0.0772(11) 0.2089(8) 0.051(6) Uiso 1 1 d
C22 C 0.11460(8) 0.07219(11) 0.15382(7) 0.0332(4) Uani 1 1 d
C23 C 0.12017(8) 0.15600(11) 0.15400(7) 0.0336(4) Uani 1 1 d
C24 C 0.06759(9) 0.19710(13) 0.14239(8) 0.0428(5) Uani 1 1 d
H24 H 0.0290(9) 0.1695(11) 0.1327(8) 0.046(6) Uiso 1 1 d
C25 C 0.06662(10) 0.27671(13) 0.14168(8) 0.0472(6) Uani 1 1 d
C26 C 0.01201(12) 0.31889(18) 0.13425(10) 0.0656(7) Uani 1 1 d
H26 H -0.0250(10) 0.2867(13) 0.1239(9) 0.065(8) Uiso 1 1 d
C27 C 0.01394(17) 0.39595(19) 0.13705(11) 0.0809(10) Uani 1 1 d
H27 H -0.0237(11) 0.4246(14) 0.1334(10) 0.083(8) Uiso 1 1 d
C28 C 0.06900(17) 0.43468(18) 0.14646(11) 0.0781(9) Uani 1 1 d
H28 H 0.0677(12) 0.4926(18) 0.1465(12) 0.110(10) Uiso 1 1 d
C29 C 0.12158(14) 0.39623(13) 0.15257(9) 0.0587(7) Uani 1 1 d
H29 H 0.1612(11) 0.4240(15) 0.1581(10) 0.087(9) Uiso 1 1 d
C30 C 0.12166(10) 0.31619(12) 0.15113(8) 0.0439(5) Uani 1 1 d
C31 C 0.17486(10) 0.27356(11) 0.16250(8) 0.0376(5) Uani 1 1 d
H31 H 0.2139(9) 0.3018(11) 0.1708(8) 0.046(6) Uiso 1 1 d
C32 C 0.17566(8) 0.19627(10) 0.16633(7) 0.0308(4) Uani 1 1 d
C33 C 0.23546(8) 0.15984(10) 0.18297(7) 0.0303(4) Uani 1 1 d
C34 C 0.28002(9) 0.17860(11) 0.15073(9) 0.0381(5) Uani 1 1 d
H34 H 0.2686(8) 0.2139(12) 0.1182(9) 0.054(6) Uiso 1 1 d
C35 C 0.33707(9) 0.14863(12) 0.16144(10) 0.0439(5) Uani 1 1 d
H35 H 0.3671(9) 0.1616(11) 0.1370(8) 0.054(6) Uiso 1 1 d
C36 C 0.35178(9) 0.09990(12) 0.20561(9) 0.0432(5) Uani 1 1 d
H36 H 0.3928(9) 0.0782(11) 0.2143(8) 0.057(6) Uiso 1 1 d
C37 C 0.30900(8) 0.08225(11) 0.23888(9) 0.0362(5) Uani 1 1 d
H37 H 0.3192(7) 0.0495(10) 0.2726(7) 0.032(5) Uiso 1 1 d
C38 C 0.25019(7) 0.11112(10) 0.22874(7) 0.0292(4) Uani 1 1 d
C39 C 0.20823(7) 0.08344(10) 0.26653(7) 0.0286(4) Uani 1 1 d
C40 C 0.20439(8) 0.00652(11) 0.27256(8) 0.0347(4) Uani 1 1 d
H40 H 0.2281(8) -0.0264(10) 0.2507(7) 0.037(5) Uiso 1 1 d
C41 C 0.16680(8) -0.02831(10) 0.30630(8) 0.0348(4) Uani 1 1 d
C42 C 0.16316(10) -0.10777(12) 0.31162(9) 0.0464(5) Uani 1 1 d
H42 H 0.1894(9) -0.1402(11) 0.2898(8) 0.051(6) Uiso 1 1 d
C43 C 0.12525(11) -0.13906(14) 0.34395(10) 0.0545(6) Uani 1 1 d
H43 H 0.1225(10) -0.1941(13) 0.3478(9) 0.069(7) Uiso 1 1 d
C44 C 0.08936(11) -0.09354(13) 0.37282(10) 0.0537(6) Uani 1 1 d
H44 H 0.0633(10) -0.1159(13) 0.3965(9) 0.066(7) Uiso 1 1 d
C45 C 0.09157(10) -0.01669(13) 0.36860(9) 0.0448(5) Uani 1 1 d
H45 H 0.0667(9) 0.0173(11) 0.3872(8) 0.049(6) Uiso 1 1 d
C46 C 0.13015(8) 0.01776(10) 0.33503(7) 0.0343(4) Uani 1 1 d
C47 C 0.13471(8) 0.09660(11) 0.32911(8) 0.0338(4) Uani 1 1 d
H47 H 0.1121(8) 0.1286(11) 0.3502(8) 0.040(5) Uiso 1 1 d
C48 C 0.17285(7) 0.13049(10) 0.29722(7) 0.0276(4) Uani 1 1 d
C49 C 0.17460(8) 0.21443(10) 0.29676(7) 0.0275(4) Uani 1 1 d
C50 C 0.12031(8) 0.25354(11) 0.28303(7) 0.0324(4) Uani 1 1 d
H50 H 0.0827(8) 0.2230(10) 0.2731(7) 0.037(5) Uiso 1 1 d
C51 C 0.11800(9) 0.33132(11) 0.28198(8) 0.0377(5) Uani 1 1 d
H51 H 0.0798(9) 0.3579(11) 0.2724(8) 0.047(6) Uiso 1 1 d
C52 C 0.17054(9) 0.37242(11) 0.29335(8) 0.0379(5) Uani 1 1 d
H52 H 0.1699(8) 0.4297(12) 0.2918(8) 0.055(6) Uiso 1 1 d
C53 C 0.22453(9) 0.33493(11) 0.30810(8) 0.0351(4) Uani 1 1 d
H53 H 0.2634(8) 0.3650(11) 0.3178(7) 0.043(5) Uiso 1 1 d
C54 C 0.22742(8) 0.25665(10) 0.31214(7) 0.0278(4) Uani 1 1 d
C55 C 0.28587(8) 0.22193(9) 0.33696(7) 0.0288(4) Uani 1 1 d
C56 C 0.33583(8) 0.23191(10) 0.31185(8) 0.0324(4) Uani 1 1 d
H56 H 0.3320(8) 0.2621(10) 0.2757(8) 0.041(5) Uiso 1 1 d
C57 C 0.39242(8) 0.20108(10) 0.33376(7) 0.0321(4) Uani 1 1 d
C58 C 0.44412(9) 0.21140(12) 0.30800(9) 0.0429(5) Uani 1 1 d
H58 H 0.4399(8) 0.2435(12) 0.2733(8) 0.051(6) Uiso 1 1 d
C59 C 0.49733(9) 0.17899(13) 0.32962(10) 0.0496(6) Uani 1 1 d
H59 H 0.5334(10) 0.1870(12) 0.3116(9) 0.064(7) Uiso 1 1 d
C60 C 0.50185(9) 0.13453(12) 0.37793(9) 0.0455(5) Uani 1 1 d
H60 H 0.5408(9) 0.1111(11) 0.3928(8) 0.047(6) Uiso 1 1 d
C61 C 0.45316(9) 0.12456(11) 0.40442(9) 0.0396(5) Uani 1 1 d
H61 H 0.4563(8) 0.0950(10) 0.4389(8) 0.039(5) Uiso 1 1 d
C62 C 0.39699(8) 0.15721(10) 0.38290(7) 0.0316(4) Uani 1 1 d
C63 C 0.34548(8) 0.14846(11) 0.40901(8) 0.0353(4) Uani 1 1 d
H63 H 0.3485(8) 0.1204(11) 0.4444(8) 0.046(6) Uiso 1 1 d
C64 C 0.29096(8) 0.18084(10) 0.38857(7) 0.0310(4) Uani 1 1 d
C65 C 0.24085(8) 0.17556(11) 0.42175(7) 0.0349(4) Uani 1 1 d
C66 C 0.22739(9) 0.10697(13) 0.44488(8) 0.0443(5) Uani 1 1 d
H66 H 0.2502(9) 0.0588(12) 0.4356(8) 0.050(6) Uiso 1 1 d
C67 C 0.18228(10) 0.10250(17) 0.47777(10) 0.0582(7) Uani 1 1 d
H67 H 0.1713(11) 0.0529(14) 0.4916(10) 0.082(8) Uiso 1 1 d
C68 C 0.15047(11) 0.16569(17) 0.48789(10) 0.0654(7) Uani 1 1 d
H68 H 0.1172(11) 0.1642(13) 0.5119(10) 0.083(8) Uiso 1 1 d
C69 C 0.16312(10) 0.23426(16) 0.46532(9) 0.0543(6) Uani 1 1 d
H69 H 0.1395(10) 0.2802(13) 0.4719(9) 0.067(7) Uiso 1 1 d
C70 C 0.20815(9) 0.23934(13) 0.43264(8) 0.0404(5) Uani 1 1 d
H70 H 0.2179(8) 0.2905(12) 0.4182(8) 0.050(6) Uiso 1 1 d
H1 H 0.0662(8) 0.0372(12) 0.0258(8) 0.051(6) Uiso 1 1 d
loop_
_atom_site_aniso_label
_atom_site_aniso_U_11
_atom_site_aniso_U_22
_atom_site_aniso_U_33
_atom_site_aniso_U_23
_atom_site_aniso_U_13
_atom_site_aniso_U_12
C1 0.0448(13) 0.0395(14) 0.0515(14) 0.0047(10) -0.0018(10) -0.0001(10)
C2 0.0387(14) 0.0576(17) 0.0774(17) 0.0108(13) -0.0071(12) -0.0032(11)
C3 0.0449(15) 0.0594(17) 0.0797(18) 0.0153(13) -0.0050(13) 0.0108(12)
C4 0.0557(15) 0.0416(15) 0.0654(16) 0.0144(11) -0.0005(12) 0.0070(11)
C5 0.0435(13) 0.0414(13) 0.0469(13) 0.0078(10) 0.0009(10) 0.0000(10)
C6 0.0401(11) 0.0367(12) 0.0296(10) 0.0029(8) 0.0008(8) 0.0003(9)
C7 0.0376(11) 0.0320(11) 0.0306(10) -0.0013(8) 0.0011(9) -0.0015(8)
C8 0.0450(12) 0.0406(13) 0.0333(11) 0.0059(9) 0.0039(9) 0.0014(9)
C9 0.0408(11) 0.0399(12) 0.0336(11) -0.0038(9) 0.0082(9) -0.0022(9)
C10 0.0533(14) 0.0530(15) 0.0417(13) 0.0015(11) 0.0159(11) -0.0038(11)
C11 0.0469(14) 0.0682(17) 0.0471(14) -0.0068(12) 0.0179(11) -0.0033(12)
C12 0.0421(13) 0.0679(17) 0.0432(13) -0.0070(11) 0.0077(11) 0.0064(11)
C13 0.0395(12) 0.0540(14) 0.0371(12) -0.0014(10) 0.0045(10) 0.0056(10)
C14 0.0348(11) 0.0386(12) 0.0294(10) -0.0053(8) 0.0034(8) -0.0017(9)
C15 0.0381(11) 0.0336(12) 0.0325(11) 0.0006(9) 0.0025(9) 0.0012(9)
C16 0.0356(11) 0.0308(11) 0.0293(10) -0.0024(8) 0.0032(8) -0.0019(8)
C17 0.0298(10) 0.0357(12) 0.0298(10) 0.0043(8) -0.0007(8) -0.0018(8)
C18 0.0404(12) 0.0383(13) 0.0413(12) 0.0041(9) 0.0012(10) -0.0028(9)
C19 0.0488(14) 0.0423(15) 0.0534(14) 0.0112(11) -0.0014(11) -0.0123(11)
C20 0.0393(12) 0.0605(16) 0.0459(13) 0.0110(11) 0.0041(10) -0.0132(11)
C21 0.0305(11) 0.0570(15) 0.0385(12) 0.0022(10) 0.0046(9) -0.0062(10)
C22 0.0246(10) 0.0414(12) 0.0323(10) 0.0016(8) -0.0004(8) -0.0021(8)
C23 0.0313(10) 0.0414(12) 0.0286(10) 0.0002(8) 0.0064(8) 0.0040(8)
C24 0.0340(12) 0.0574(15) 0.0374(12) 0.0026(10) 0.0064(9) 0.0086(10)
C25 0.0523(14) 0.0567(15) 0.0327(11) 0.0082(10) 0.0068(10) 0.0245(11)
C26 0.0601(17) 0.084(2) 0.0532(15) 0.0153(14) 0.0107(13) 0.0340(16)
C27 0.098(2) 0.085(2) 0.0632(18) 0.0277(15) 0.0224(17) 0.063(2)
C28 0.117(3) 0.062(2) 0.0615(18) 0.0274(14) 0.0337(18) 0.0437(19)
C29 0.093(2) 0.0424(15) 0.0454(14) 0.0171(11) 0.0240(13) 0.0231(14)
C30 0.0586(14) 0.0445(14) 0.0306(11) 0.0085(9) 0.0133(10) 0.0157(11)
C31 0.0466(13) 0.0350(13) 0.0326(11) 0.0035(8) 0.0109(9) 0.0034(10)
C32 0.0347(10) 0.0337(12) 0.0252(9) 0.0011(8) 0.0084(8) 0.0019(8)
C33 0.0292(10) 0.0282(11) 0.0338(10) -0.0064(8) 0.0060(8) -0.0029(7)
C34 0.0369(11) 0.0370(12) 0.0423(12) -0.0047(9) 0.0116(9) -0.0052(9)
C35 0.0325(12) 0.0444(13) 0.0581(14) -0.0128(11) 0.0172(11) -0.0071(9)
C36 0.0290(11) 0.0404(13) 0.0603(15) -0.0138(11) 0.0075(10) 0.0008(9)
C37 0.0339(11) 0.0328(12) 0.0410(12) -0.0052(9) 0.0021(9) 0.0026(8)
C38 0.0281(10) 0.0255(10) 0.0339(10) -0.0068(8) 0.0041(8) 0.0001(7)
C39 0.0281(10) 0.0272(11) 0.0288(10) -0.0013(7) -0.0010(8) 0.0027(7)
C40 0.0372(11) 0.0279(11) 0.0383(11) -0.0027(8) 0.0035(9) 0.0033(8)
C41 0.0372(11) 0.0297(11) 0.0351(11) 0.0007(8) -0.0028(9) 0.0000(8)
C42 0.0544(14) 0.0308(13) 0.0526(14) 0.0023(10) 0.0031(11) -0.0024(10)
C43 0.0652(16) 0.0317(14) 0.0644(16) 0.0086(11) 0.0023(13) -0.0062(11)
C44 0.0579(15) 0.0464(15) 0.0563(15) 0.0147(11) 0.0068(12) -0.0143(11)
C45 0.0453(13) 0.0427(14) 0.0466(13) 0.0055(10) 0.0072(10) -0.0068(10)
C46 0.0347(11) 0.0318(11) 0.0345(11) 0.0028(8) -0.0007(8) -0.0048(8)
C47 0.0331(11) 0.0321(12) 0.0363(11) -0.0012(8) 0.0054(9) 0.0014(8)
C48 0.0254(9) 0.0278(10) 0.0283(10) 0.0000(7) -0.0006(8) 0.0014(7)
C49 0.0312(10) 0.0279(10) 0.0241(9) 0.0007(7) 0.0066(8) 0.0025(8)
C50 0.0323(11) 0.0347(12) 0.0309(10) 0.0007(8) 0.0067(8) 0.0040(9)
C51 0.0422(12) 0.0358(13) 0.0360(11) 0.0029(9) 0.0085(9) 0.0146(10)
C52 0.0521(13) 0.0252(12) 0.0365(11) 0.0002(8) 0.0076(9) 0.0056(9)
C53 0.0437(12) 0.0280(11) 0.0334(11) -0.0009(8) 0.0053(9) -0.0012(9)
C54 0.0327(10) 0.0257(10) 0.0257(9) 0.0004(7) 0.0061(8) 0.0023(8)
C55 0.0320(10) 0.0240(10) 0.0300(10) -0.0028(7) 0.0040(8) -0.0008(7)
C56 0.0348(11) 0.0291(11) 0.0333(11) 0.0012(8) 0.0051(9) -0.0035(8)
C57 0.0324(10) 0.0294(11) 0.0346(10) -0.0048(8) 0.0052(8) -0.0031(8)
C58 0.0368(12) 0.0514(14) 0.0421(12) 0.0035(10) 0.0112(10) -0.0012(10)
C59 0.0319(12) 0.0613(16) 0.0572(15) -0.0007(12) 0.0118(11) -0.0008(11)
C60 0.0302(12) 0.0482(14) 0.0559(14) -0.0053(11) -0.0001(10) 0.0033(10)
C61 0.0366(12) 0.0379(12) 0.0426(12) -0.0009(10) 0.0002(10) 0.0015(9)
C62 0.0307(10) 0.0280(11) 0.0354(11) -0.0049(8) 0.0023(8) -0.0005(8)
C63 0.0393(11) 0.0344(12) 0.0319(11) 0.0029(9) 0.0040(9) 0.0015(9)
C64 0.0332(10) 0.0288(11) 0.0307(10) -0.0014(8) 0.0038(8) -0.0010(8)
C65 0.0319(10) 0.0446(12) 0.0273(10) 0.0027(8) 0.0017(8) 0.0003(9)
C66 0.0406(12) 0.0512(15) 0.0414(12) 0.0138(10) 0.0067(10) 0.0007(10)
C67 0.0470(14) 0.0772(19) 0.0513(15) 0.0261(13) 0.0105(11) -0.0053(13)
C68 0.0414(14) 0.104(2) 0.0542(15) 0.0159(15) 0.0187(12) 0.0056(14)
C69 0.0455(14) 0.0764(19) 0.0424(13) -0.0011(12) 0.0107(11) 0.0114(13)
C70 0.0387(12) 0.0502(14) 0.0326(11) -0.0021(10) 0.0064(9) 0.0041(10)
loop_
_atom_type_symbol
_atom_type_description
_atom_type_scat_dispersion_real
_atom_type_scat_dispersion_imag
_atom_type_scat_source
C C 0.0033 0.0016 'International Tables Vol C Tables 4.2.6.8 and 6.1.1.4'
H H 0.0000 0.0000 'International Tables Vol C Tables 4.2.6.8 and 6.1.1.4'
loop_
_geom_angle_atom_site_label_1
_geom_angle_atom_site_label_2
_geom_angle_atom_site_label_3
_geom_angle
C2 C1 C6 120.5(2)
C3 C2 C1 120.4(2)
C2 C3 C4 119.9(2)
C3 C4 C5 120.3(2)
C4 C5 C6 120.6(2)
C5 C6 C1 118.45(19)
C5 C6 C7 119.67(18)
C1 C6 C7 121.76(18)
C8 C7 C16 119.02(17)
C8 C7 C6 117.97(17)
C16 C7 C6 122.90(16)
C7 C8 C9 122.86(18)
C8 C9 C14 118.17(17)
C8 C9 C10 122.95(19)
C14 C9 C10 118.85(18)
C11 C10 C9 120.5(2)
C10 C11 C12 120.7(2)
C13 C12 C11 120.4(2)
C12 C13 C14 120.7(2)
C15 C14 C9 118.44(17)
C15 C14 C13 122.68(18)
C9 C14 C13 118.87(18)
C16 C15 C14 123.26(18)
C15 C16 C7 118.22(17)
C15 C16 C17 117.75(16)
C7 C16 C17 123.89(16)
C18 C17 C22 118.47(17)
C18 C17 C16 115.56(17)
C22 C17 C16 125.97(17)
C19 C18 C17 121.9(2)
C20 C19 C18 119.6(2)
C21 C20 C19 119.4(2)
C20 C21 C22 122.2(2)
C17 C22 C21 118.34(18)
C17 C22 C23 125.04(16)
C21 C22 C23 116.53(17)
C24 C23 C32 118.28(19)
C24 C23 C22 117.08(18)
C32 C23 C22 124.62(16)
C23 C24 C25 122.7(2)
C24 C25 C30 118.82(19)
C24 C25 C26 122.5(2)
C30 C25 C26 118.7(2)
C27 C26 C25 119.8(3)
C26 C27 C28 121.1(3)
C29 C28 C27 120.5(3)
C28 C29 C30 120.3(3)
C31 C30 C25 117.77(19)
C31 C30 C29 122.4(2)
C25 C30 C29 119.7(2)
C32 C31 C30 123.4(2)
C31 C32 C23 118.78(17)
C31 C32 C33 116.87(17)
C23 C32 C33 124.35(17)
C34 C33 C38 118.81(17)
C34 C33 C32 116.04(17)
C38 C33 C32 125.12(15)
C35 C34 C33 121.9(2)
C36 C35 C34 119.8(2)
C35 C36 C37 119.24(19)
C36 C37 C38 122.42(19)
C33 C38 C37 117.77(17)
C33 C38 C39 126.13(15)
C37 C38 C39 116.03(16)
C40 C39 C48 118.17(17)
C40 C39 C38 116.51(16)
C48 C39 C38 125.31(16)
C39 C40 C41 123.40(18)
C40 C41 C46 118.65(17)
C40 C41 C42 122.51(19)
C46 C41 C42 118.82(19)
C43 C42 C41 120.5(2)
C42 C43 C44 120.8(2)
C45 C44 C43 120.4(2)
C44 C45 C46 120.3(2)
C47 C46 C45 123.13(19)
C47 C46 C41 117.69(17)
C45 C46 C41 119.18(19)
C48 C47 C46 123.41(18)
C47 C48 C39 118.61(17)
C47 C48 C49 117.38(16)
C39 C48 C49 124.01(16)
C50 C49 C54 118.18(17)
C50 C49 C48 118.24(16)
C54 C49 C48 123.50(15)
C51 C50 C49 121.87(18)
C50 C51 C52 119.63(19)
C51 C52 C53 119.40(19)
C52 C53 C54 121.79(19)
C53 C54 C49 118.86(16)
C53 C54 C55 117.90(16)
C49 C54 C55 123.07(16)
C56 C55 C64 119.29(16)
C56 C55 C54 120.04(16)
C64 C55 C54 120.61(15)
C55 C56 C57 122.50(17)
C58 C57 C62 118.88(17)
C58 C57 C56 122.66(18)
C62 C57 C56 118.46(16)
C59 C58 C57 120.8(2)
C58 C59 C60 120.5(2)
C61 C60 C59 120.2(2)
C60 C61 C62 120.7(2)
C63 C62 C57 118.54(16)
C63 C62 C61 122.57(18)
C57 C62 C61 118.89(17)
C64 C63 C62 122.75(18)
C63 C64 C55 118.31(17)
C63 C64 C65 119.20(16)
C55 C64 C65 122.42(15)
C66 C65 C70 118.60(18)
C66 C65 C64 120.20(17)
C70 C65 C64 121.14(17)
C67 C66 C65 120.3(2)
C68 C67 C66 120.3(2)
C67 C68 C69 120.3(2)
C70 C69 C68 119.9(2)
C69 C70 C65 120.6(2)
loop_
_geom_bond_atom_site_label_1
_geom_bond_atom_site_label_2
_geom_bond_distance
C1 C2 1.384(3)
C1 C6 1.391(3)
C2 C3 1.371(3)
C3 C4 1.375(3)
C4 C5 1.382(3)
C5 C6 1.390(3)
C6 C7 1.490(2)
C7 C8 1.377(3)
C7 C16 1.435(2)
C8 C9 1.414(3)
C9 C14 1.416(3)
C9 C10 1.419(3)
C10 C11 1.363(3)
C11 C12 1.399(3)
C12 C13 1.365(3)
C13 C14 1.417(3)
C14 C15 1.409(3)
C15 C16 1.379(2)
C16 C17 1.494(2)
C17 C18 1.398(3)
C17 C22 1.404(3)
C18 C19 1.385(3)
C19 C20 1.378(3)
C20 C21 1.375(3)
C21 C22 1.406(3)
C22 C23 1.491(3)
C23 C24 1.383(3)
C23 C32 1.431(2)
C24 C25 1.412(3)
C25 C30 1.412(3)
C25 C26 1.428(3)
C26 C27 1.368(4)
C27 C28 1.406(4)
C28 C29 1.355(4)
C29 C30 1.420(3)
C30 C31 1.409(3)
C31 C32 1.373(3)
C32 C33 1.494(2)
C33 C34 1.402(2)
C33 C38 1.406(2)
C34 C35 1.379(3)
C35 C36 1.377(3)
C36 C37 1.382(3)
C37 C38 1.407(2)
C38 C39 1.495(2)
C39 C40 1.376(3)
C39 C48 1.436(2)
C40 C41 1.406(3)
C41 C46 1.417(3)
C41 C42 1.418(3)
C42 C43 1.361(3)
C43 C44 1.402(3)
C44 C45 1.368(3)
C45 C46 1.416(3)
C46 C47 1.411(3)
C47 C48 1.377(2)
C48 C49 1.489(2)
C49 C50 1.402(2)
C49 C54 1.408(2)
C50 C51 1.380(3)
C51 C52 1.382(3)
C52 C53 1.385(3)
C53 C54 1.392(2)
C54 C55 1.496(2)
C55 C56 1.369(2)
C55 C64 1.438(2)
C56 C57 1.415(2)
C57 C58 1.414(3)
C57 C62 1.414(2)
C58 C59 1.361(3)
C59 C60 1.403(3)
C60 C61 1.363(3)
C61 C62 1.418(3)
C62 C63 1.411(3)
C63 C64 1.379(2)
C64 C65 1.484(2)
C65 C66 1.392(3)
C65 C70 1.396(3)
C66 C67 1.385(3)
C67 C68 1.372(4)
C68 C69 1.381(3)
C69 C70 1.381(3)
