#------------------------------------------------------------------------------
#$Date: 2016-02-14 06:40:26 +0200 (Sun, 14 Feb 2016) $
#$Revision: 176432 $
#$URL: svn://www.crystallography.net/cod/cif/4/12/13/4121362.cif $
#------------------------------------------------------------------------------
#
# This file is available in the Crystallography Open Database (COD),
# http://www.crystallography.net/
#
# All data on this site have been placed in the public domain by the
# contributors.
#
data_4121362
loop_
_publ_author_name
'Javier Carreras'
'Gopinadhanpillai Gopakumar'
'Liangu Gu'
'Ana Gimeno'
'Pawel Linowski'
'Jekaterina Petu\<skova'
'Walter Thiel'
'Manuel Alcarazo'
_publ_section_title
;
 Polycationic Ligands in Gold Catalysis: Synthesis and Applications of
 Extremely \p-Acidic Catalysts
;
_journal_name_full               'Journal of the American Chemical Society'
_journal_page_first              18815
_journal_page_last               18823
_journal_paper_doi               10.1021/ja411146x
_journal_volume                  135
_journal_year                    2013
_chemical_absolute_configuration rmad
_chemical_compound_source        methanol
_chemical_formula_moiety         'C24 H16'
_chemical_formula_sum            'C24 H16'
_chemical_formula_weight         304.37
_space_group_IT_number           9
_symmetry_cell_setting           monoclinic
_symmetry_Int_Tables_number      9
_symmetry_space_group_name_Hall  'C -2yc'
_symmetry_space_group_name_H-M   'C 1 c 1'
_atom_sites_solution_hydrogens   geom
_atom_sites_solution_primary     direct
_atom_sites_solution_secondary   difmap
_audit_block_code                GIM-GA-105-02
_audit_creation_date             2012-10-04
_audit_creation_method           SHELXL-97
_cell_angle_alpha                90.00
_cell_angle_beta                 104.463(8)
_cell_angle_gamma                90.00
_cell_formula_units_Z            8
_cell_length_a                   15.4509(5)
_cell_length_b                   10.9866(12)
_cell_length_c                   19.235(3)
_cell_measurement_reflns_used    50166
_cell_measurement_temperature    100
_cell_measurement_theta_max      33.9993
_cell_measurement_theta_min      2.6707
_cell_volume                     3161.7(6)
_computing_cell_refinement       'DENZO (Bruker AXS, 2006)'
_computing_data_collection       'DATCOL (Bruker AXS, 2006)'
_computing_data_reduction        'DENZO (Bruker AXS, 2006)'
_computing_molecular_graphics    'DIAMOND (Crystal Impact GbR, 2005)'
_computing_structure_refinement  'SHELXL-97 (Sheldrick, 2008)'
_computing_structure_solution    'SHELXS-97 (Sheldrick, 2008)'
_diffrn_ambient_temperature      100
_diffrn_detector_area_resol_mean 18.02
_diffrn_measured_fraction_theta_full 0.998
_diffrn_measured_fraction_theta_max 0.999
_diffrn_measurement_device_type  'Bruker AXS Enraf-Nonius KappaCCD'
_diffrn_measurement_method       'CCD \f- and \w-scans'
_diffrn_radiation_monochromator  graphite
_diffrn_radiation_source         '0.2 x 2mm^2^ focus rotating anode'
_diffrn_radiation_type           MoK\a
_diffrn_radiation_wavelength     0.71073
_diffrn_reflns_av_R_equivalents  0.0489
_diffrn_reflns_av_sigmaI/netI    0.0505
_diffrn_reflns_limit_h_max       24
_diffrn_reflns_limit_h_min       -24
_diffrn_reflns_limit_k_max       17
_diffrn_reflns_limit_k_min       -17
_diffrn_reflns_limit_l_max       30
_diffrn_reflns_limit_l_min       -30
_diffrn_reflns_number            45761
_diffrn_reflns_theta_full        27.50
_diffrn_reflns_theta_max         34.00
_diffrn_reflns_theta_min         2.69
_exptl_absorpt_coefficient_mu    0.072
_exptl_absorpt_correction_T_max  0.99109
_exptl_absorpt_correction_T_min  0.98454
_exptl_absorpt_correction_type   gaussian
_exptl_absorpt_process_details   'SADABS (Bruker AXS, 2008)'
_exptl_crystal_colour            yellow
_exptl_crystal_density_diffrn    1.279
_exptl_crystal_description       prism
_exptl_crystal_F_000             1280
_exptl_crystal_size_max          0.31
_exptl_crystal_size_mid          0.18
_exptl_crystal_size_min          0.13
_refine_diff_density_max         0.488
_refine_diff_density_min         -0.418
_refine_diff_density_rms         0.110
_refine_ls_abs_structure_details 'Flack H D (1983), Acta Cryst. A39, 876-881'
_refine_ls_abs_structure_Flack   -9(8)
_refine_ls_extinction_method     none
_refine_ls_goodness_of_fit_ref   1.121
_refine_ls_hydrogen_treatment    constr
_refine_ls_matrix_type           full
_refine_ls_number_parameters     433
_refine_ls_number_reflns         12696
_refine_ls_number_restraints     2
_refine_ls_restrained_S_all      1.120
_refine_ls_R_factor_all          0.0763
_refine_ls_R_factor_gt           0.0575
_refine_ls_shift/su_max          0.000
_refine_ls_shift/su_mean         0.000
_refine_ls_structure_factor_coef Fsqd
_refine_ls_weighting_details
'calc w=1/[\s^2^(Fo^2^)+(0.0969P)^2^+0.6410P] where P=(Fo^2^+2Fc^2^)/3'
_refine_ls_weighting_scheme      calc
_refine_ls_wR_factor_gt          0.1487
_refine_ls_wR_factor_ref         0.1645
_reflns_number_gt                10427
_reflns_number_total             12696
_reflns_threshold_expression     >2sigma(I)
_iucr_refine_instructions_details
;
TITL 8020sadabs in Cc #9
CELL 0.71073 15.4509 10.9866 19.2353 90 104.463 90
ZERR 8 0.0005 0.0012 0.0026 0 0.008 0
LATT -7
SYMM +X,-Y,0.5+Z
 
SFAC C H
UNIT 192 128
 
L.S. 10
PLAN  20
REM reset to Cc #9
BOND
fmap 2
acta 55
REM <HKL>Z:/8020/8020sadabs.hkl</HKL>
 
WGHT    0.096900    0.641000
FVAR       0.13997
C1    1    0.447345    0.695460    0.677313    11.00000    0.01573    0.01487 =
         0.01458    0.00042    0.00185    0.00091
C2    1    0.529172    0.672612    0.661499    11.00000    0.01587    0.02462 =
         0.02012    0.00026    0.00256    0.00311
AFIX  43
H2    2    0.544129    0.592827    0.653294    11.00000   -1.20000
AFIX   0
C3    1    0.589666    0.766132    0.657568    11.00000    0.01596    0.03310 =
         0.02307    0.00029    0.00388   -0.00307
AFIX  43
H3    2    0.641468    0.749175    0.643055    11.00000   -1.20000
AFIX   0
C4    1    0.571787    0.882475    0.675270    11.00000    0.02052    0.02751 =
         0.02295    0.00228    0.00301   -0.00732
AFIX  43
H4    2    0.613773    0.943584    0.676424    11.00000   -1.20000
AFIX   0
C5    1    0.490185    0.910156    0.691743    11.00000    0.02226    0.01679 =
         0.01775    0.00195    0.00107   -0.00384
C6    1    0.477572    1.027900    0.719957    11.00000    0.03394    0.01529 =
         0.02109    0.00214    0.00069   -0.00589
AFIX  43
H6    2    0.520427    1.088140    0.722024    11.00000   -1.20000
AFIX   0
C7    1    0.403860    1.052139    0.743602    11.00000    0.03889    0.01200 =
         0.02103    0.00031   -0.00006    0.00148
AFIX  43
H7    2    0.401133    1.123324    0.769132    11.00000   -1.20000
AFIX   0
C8    1    0.330385    0.969488    0.729706    11.00000    0.03103    0.01415 =
         0.01726    0.00116    0.00426    0.00497
C9    1    0.249957    1.000065    0.750036    11.00000    0.04433    0.01773 =
         0.02375    0.00292    0.01484    0.01337
AFIX  43
H9    2    0.248746    1.069051    0.777796    11.00000   -1.20000
AFIX   0
C10   1    0.175784    0.930432    0.729589    11.00000    0.03410    0.02259 =
         0.02913    0.00868    0.01866    0.01305
AFIX  43
H10   2    0.126526    0.946611    0.747712    11.00000   -1.20000
AFIX   0
C11   1    0.172538    0.832365    0.680437    11.00000    0.02122    0.01932 =
         0.02479    0.01036    0.01167    0.00920
C12   1    0.090526    0.775269    0.647561    11.00000    0.01828    0.03002 =
         0.03784    0.01545    0.01211    0.00846
AFIX  43
H12   2    0.039607    0.794644    0.662774    11.00000   -1.20000
AFIX   0
C13   1    0.084835    0.691757    0.593589    11.00000    0.01440    0.03000 =
         0.03411    0.01182    0.00234   -0.00064
AFIX  43
H13   2    0.030455    0.654861    0.572460    11.00000   -1.20000
AFIX   0
C14   1    0.161798    0.662145    0.570315    11.00000    0.01799    0.02157 =
         0.02231    0.00496   -0.00006   -0.00044
AFIX  43
H14   2    0.157716    0.607637    0.532642    11.00000   -1.20000
AFIX   0
C15   1    0.242987    0.713543    0.603099    11.00000    0.01520    0.01603 =
         0.01604    0.00343    0.00265    0.00201
AFIX  43
H15   2    0.293235    0.692426    0.587398    11.00000   -1.20000
AFIX   0
C16   1    0.251839    0.797947    0.660255    11.00000    0.01642    0.01522 =
         0.01733    0.00486    0.00503    0.00498
C17   1    0.335103    0.858912    0.692789    11.00000    0.01956    0.01284 =
         0.01424    0.00267    0.00388    0.00178
C18   1    0.422138    0.819406    0.685678    11.00000    0.01674    0.01303 =
         0.01444    0.00089    0.00173    0.00009
C19   1    0.397665    0.588316    0.695044    11.00000    0.01456    0.01168 =
         0.01559    0.00116   -0.00076    0.00212
C20   1    0.359869    0.590847    0.754139    11.00000    0.01883    0.01459 =
         0.01523    0.00119    0.00125    0.00056
AFIX  43
H20   2    0.363298    0.661777    0.781079    11.00000   -1.20000
AFIX   0
C21   1    0.317401    0.489323    0.773166    11.00000    0.01831    0.01989 =
         0.01968    0.00397    0.00174   -0.00060
AFIX  43
H21   2    0.292335    0.492813    0.812336    11.00000   -1.20000
AFIX   0
C22   1    0.312353    0.382106    0.733505    11.00000    0.02009    0.01559 =
         0.02789    0.00437    0.00027   -0.00092
AFIX  43
H22   2    0.284017    0.313896    0.746096    11.00000   -1.20000
AFIX   0
C23   1    0.349985    0.377968    0.675030    11.00000    0.02290    0.01282 =
         0.02747   -0.00316   -0.00102   -0.00034
AFIX  43
H23   2    0.346844    0.306605    0.648512    11.00000   -1.20000
AFIX   0
C24   1    0.392227    0.479588    0.655922    11.00000    0.01887    0.01516 =
         0.02064   -0.00252    0.00166    0.00320
AFIX  43
H24   2    0.417217    0.475546    0.616726    11.00000   -1.20000
AFIX   0
 
C31   1    0.448905    0.528437    0.450819    11.00000    0.01377    0.01644 =
         0.01362    0.00015    0.00169    0.00071
C32   1    0.368926    0.550684    0.469060    11.00000    0.01738    0.02112 =
         0.01859   -0.00103    0.00358    0.00180
AFIX  43
H32   2    0.354906    0.630197    0.478742    11.00000   -1.20000
AFIX   0
C33   1    0.308543    0.457447    0.473396    11.00000    0.01560    0.03310 =
         0.02228    0.00038    0.00536   -0.00092
AFIX  43
H33   2    0.258030    0.473907    0.489824    11.00000   -1.20000
AFIX   0
C34   1    0.324851    0.341293    0.453072    11.00000    0.01928    0.02807 =
         0.02135    0.00405    0.00252   -0.00652
AFIX  43
H34   2    0.282524    0.280463    0.451405    11.00000   -1.20000
AFIX   0
C35   1    0.406061    0.314196    0.434671    11.00000    0.02011    0.01789 =
         0.01673    0.00273    0.00063   -0.00273
C36   1    0.416577    0.197544    0.404662    11.00000    0.02947    0.01634 =
         0.02116    0.00165   -0.00127   -0.00667
AFIX  43
H36   2    0.373361    0.137731    0.402365    11.00000   -1.20000
AFIX   0
C37   1    0.489519    0.174117    0.379561    11.00000    0.03768    0.01159 =
         0.01952   -0.00070    0.00193    0.00053
AFIX  43
H37   2    0.491452    0.103691    0.353168    11.00000   -1.20000
AFIX   0
C38   1    0.563461    0.256615    0.393274    11.00000    0.02730    0.01335 =
         0.01675    0.00247    0.00437    0.00360
C39   1    0.642931    0.224811    0.371922    11.00000    0.03790    0.01745 =
         0.02024    0.00331    0.01071    0.01090
AFIX  43
H39   2    0.642754    0.156986    0.342960    11.00000   -1.20000
AFIX   0
C40   1    0.718300    0.292059    0.393292    11.00000    0.03131    0.02149 =
         0.02441    0.00834    0.01511    0.01308
AFIX  43
H40   2    0.767649    0.274260    0.375608    11.00000   -1.20000
AFIX   0
C41   1    0.722664    0.390260    0.442845    11.00000    0.01977    0.01953 =
         0.02364    0.00836    0.00950    0.00585
C42   1    0.805756    0.446124    0.475399    11.00000    0.01797    0.02600 =
         0.03493    0.01336    0.01084    0.00468
AFIX  43
H42   2    0.856406    0.425377    0.460161    11.00000   -1.20000
AFIX   0
C43   1    0.812162    0.530477    0.529152    11.00000    0.01532    0.02670 =
         0.03531    0.01029    0.00249   -0.00180
AFIX  43
H43   2    0.866644    0.567687    0.549575    11.00000   -1.20000
AFIX   0
C44   1    0.735967    0.560362    0.553193    11.00000    0.01909    0.02130 =
         0.02193    0.00416    0.00077   -0.00154
AFIX  43
H44   2    0.740799    0.614650    0.591067    11.00000   -1.20000
AFIX   0
C45   1    0.654220    0.509660    0.520947    11.00000    0.01513    0.01597 =
         0.01786    0.00341    0.00239    0.00163
AFIX  43
H45   2    0.604448    0.531094    0.537212    11.00000   -1.20000
AFIX   0
C46   1    0.644247    0.425990    0.463832    11.00000    0.01666    0.01300 =
         0.01859    0.00500    0.00578    0.00342
C47   1    0.560133    0.365992    0.431136    11.00000    0.01901    0.01232 =
         0.01466    0.00232    0.00403    0.00238
C48   1    0.473321    0.405207    0.440540    11.00000    0.01498    0.01385 =
         0.01410    0.00070    0.00232   -0.00073
C49   1    0.498055    0.636447    0.433124    11.00000    0.01293    0.01302 =
         0.01682    0.00039    0.00082    0.00154
C50   1    0.531913    0.637034    0.371951    11.00000    0.01694    0.01387 =
         0.01805    0.00033    0.00214    0.00262
AFIX  43
H50   2    0.525800    0.568271    0.342932    11.00000   -1.20000
AFIX   0
C51   1    0.574559    0.739722    0.354393    11.00000    0.02084    0.01656 =
         0.02219    0.00475    0.00500    0.00103
AFIX  43
H51   2    0.597567    0.738684    0.314099    11.00000   -1.20000
AFIX   0
C52   1    0.583148    0.844320    0.396684    11.00000    0.01971    0.01544 =
         0.03000    0.00194    0.00082   -0.00110
AFIX  43
H52   2    0.611983    0.912666    0.384841    11.00000   -1.20000
AFIX   0
C53   1    0.548407    0.845590    0.456427    11.00000    0.02264    0.01467 =
         0.02839   -0.00422   -0.00027   -0.00027
AFIX  43
H53   2    0.553290    0.915331    0.484543    11.00000   -1.20000
AFIX   0
C54   1    0.506190    0.742697    0.474490    11.00000    0.01894    0.01736 =
         0.01937   -0.00253    0.00155    0.00083
AFIX  43
H54   2    0.483004    0.744528    0.514685    11.00000   -1.20000
HKLF 4
 
REM  8020sadabs in Cc #9
REM R1 =  0.0575 for  10427 Fo > 4sig(Fo)  and  0.0763 for all  12696 data
REM    433 parameters refined using      2 restraints
 
END  
     
WGHT      0.0969      0.6410 
REM Highest difference peak  0.488,  deepest hole -0.418,  1-sigma level  0.110
Q1    1   0.6852  0.4077  0.4523  11.00000  0.05    0.49
Q2    1   0.6040  0.2421  0.3845  11.00000  0.05    0.47
Q3    1   0.1636  0.8828  0.7042  11.00000  0.05    0.45
Q4    1   0.7248  0.3430  0.4211  11.00000  0.05    0.44
Q5    1   0.4564  0.1859  0.3990  11.00000  0.05    0.44
Q6    1   0.4890  0.6812  0.6714  11.00000  0.05    0.43
Q7    1   0.2098  0.8191  0.6714  11.00000  0.05    0.42
Q8    1   0.2877  0.9814  0.7413  11.00000  0.05    0.42
Q9    1   0.5610  0.7179  0.6607  11.00000  0.05    0.41
Q10   1   0.1256  0.6851  0.5878  11.00000  0.05    0.39
Q11   1   0.4221  0.6394  0.6860  11.00000  0.05    0.39
Q12   1   0.3783  0.4251  0.6668  11.00000  0.05    0.38
Q13   1   0.2024  0.9829  0.7317  11.00000  0.05    0.36
Q14   1   0.3612  0.3151  0.4418  11.00000  0.05    0.36
Q15   1   0.1369  0.9846  0.7486  11.00000  0.05    0.36
Q16   1   0.7728  0.5500  0.5426  11.00000  0.05    0.35
Q17   1   0.3214  0.3981  0.4671  11.00000  0.05    0.35
Q18   1   0.3997  0.5353  0.6780  11.00000  0.05    0.35
Q19   1   0.3722  0.5848  0.7179  11.00000  0.05    0.34
Q20   1   0.6878  0.2421  0.3964  11.00000  0.05    0.33

REM The information below was added by Olex2.
REM
REM R1 = 0.0575 for 10427 Fo > 4sig(Fo) and n/a for all 46934 data
REM n/a parameters refined using n/a restraints
REM Highest difference peak 0.49, deepest hole -0.42
REM Mean Shift 0, Max Shift 0.

REM +++ Tabular Listing of Refinement Information +++
REM R1_all = n/a
REM R1_gt = 0.0575
REM wR_ref = 0.1645
REM GOOF = 1.121
REM Shift_max = 0
REM Shift_mean = 0
REM Reflections_all = 46934
REM Reflections_gt = 10427
REM Parameters = n/a
REM Hole = 0.49
REM Peak = -0.42
REM Flack = -9(8)
;
_cod_data_source_file            ja411146x_si_004.cif
_cod_data_source_block           8020sadabs
_cod_original_cell_volume        3161.8(6)
_cod_original_sg_symbol_Hall     'c -2yc'
_cod_database_code               4121362
loop_
_symmetry_equiv_pos_as_xyz
'x, y, z'
'x, -y, z+1/2'
'x+1/2, y+1/2, z'
'x+1/2, -y+1/2, z+1/2'
loop_
_atom_site_label
_atom_site_type_symbol
_atom_site_fract_x
_atom_site_fract_y
_atom_site_fract_z
_atom_site_U_iso_or_equiv
_atom_site_adp_type
_atom_site_occupancy
_atom_site_symmetry_multiplicity
_atom_site_calc_flag
_atom_site_refinement_flags
C1 C 0.44735(10) 0.69546(14) 0.67731(8) 0.0154(3) Uani 1 1 d .
C2 C 0.52917(10) 0.67261(16) 0.66150(9) 0.0205(3) Uani 1 1 d .
H2 H 0.5441 0.5928 0.6533 0.025 Uiso 1 1 calc R
C3 C 0.58967(11) 0.76613(19) 0.65757(9) 0.0242(3) Uani 1 1 d .
H3 H 0.6415 0.7492 0.6431 0.029 Uiso 1 1 calc R
C4 C 0.57179(12) 0.88247(17) 0.67527(9) 0.0241(3) Uani 1 1 d .
H4 H 0.6138 0.9436 0.6764 0.029 Uiso 1 1 calc R
C5 C 0.49018(11) 0.91016(15) 0.69174(8) 0.0196(3) Uani 1 1 d .
C6 C 0.47757(13) 1.02790(15) 0.71996(9) 0.0245(3) Uani 1 1 d .
H6 H 0.5204 1.0881 0.7220 0.029 Uiso 1 1 calc R
C7 C 0.40386(13) 1.05214(15) 0.74360(9) 0.0253(3) Uani 1 1 d .
H7 H 0.4011 1.1233 0.7691 0.030 Uiso 1 1 calc R
C8 C 0.33038(12) 0.96949(15) 0.72971(8) 0.0211(3) Uani 1 1 d .
C9 C 0.24996(14) 1.00007(17) 0.75004(9) 0.0275(4) Uani 1 1 d .
H9 H 0.2487 1.0691 0.7778 0.033 Uiso 1 1 calc R
C10 C 0.17578(13) 0.93043(17) 0.72959(10) 0.0267(4) Uani 1 1 d .
H10 H 0.1265 0.9466 0.7477 0.032 Uiso 1 1 calc R
C11 C 0.17254(11) 0.83236(15) 0.68044(9) 0.0207(3) Uani 1 1 d .
C12 C 0.09053(12) 0.77527(19) 0.64756(11) 0.0278(4) Uani 1 1 d .
H12 H 0.0396 0.7946 0.6628 0.033 Uiso 1 1 calc R
C13 C 0.08483(11) 0.69176(18) 0.59359(11) 0.0268(4) Uani 1 1 d .
H13 H 0.0305 0.6549 0.5725 0.032 Uiso 1 1 calc R
C14 C 0.16180(10) 0.66214(16) 0.57032(9) 0.0215(3) Uani 1 1 d .
H14 H 0.1577 0.6076 0.5326 0.026 Uiso 1 1 calc R
C15 C 0.24299(10) 0.71354(14) 0.60310(8) 0.0160(3) Uani 1 1 d .
H15 H 0.2932 0.6924 0.5874 0.019 Uiso 1 1 calc R
C16 C 0.25184(10) 0.79795(14) 0.66025(8) 0.0162(3) Uani 1 1 d .
C17 C 0.33510(10) 0.85891(14) 0.69279(8) 0.0156(3) Uani 1 1 d .
C18 C 0.42214(10) 0.81941(13) 0.68568(8) 0.0151(2) Uani 1 1 d .
C19 C 0.39767(9) 0.58832(13) 0.69504(8) 0.0147(2) Uani 1 1 d .
C20 C 0.35987(10) 0.59085(14) 0.75414(8) 0.0167(3) Uani 1 1 d .
H20 H 0.3633 0.6618 0.7811 0.020 Uiso 1 1 calc R
C21 C 0.31740(11) 0.48932(15) 0.77317(9) 0.0198(3) Uani 1 1 d .
H21 H 0.2923 0.4928 0.8123 0.024 Uiso 1 1 calc R
C22 C 0.31235(11) 0.38211(15) 0.73351(9) 0.0222(3) Uani 1 1 d .
H22 H 0.2840 0.3139 0.7461 0.027 Uiso 1 1 calc R
C23 C 0.34998(11) 0.37797(15) 0.67503(10) 0.0224(3) Uani 1 1 d .
H23 H 0.3468 0.3066 0.6485 0.027 Uiso 1 1 calc R
C24 C 0.39223(10) 0.47959(14) 0.65592(9) 0.0188(3) Uani 1 1 d .
H24 H 0.4172 0.4755 0.6167 0.023 Uiso 1 1 calc R
C31 C 0.44890(10) 0.52844(13) 0.45082(8) 0.0149(2) Uani 1 1 d .
C32 C 0.36893(10) 0.55068(15) 0.46906(8) 0.0192(3) Uani 1 1 d .
H32 H 0.3549 0.6302 0.4787 0.023 Uiso 1 1 calc R
C33 C 0.30854(11) 0.45745(18) 0.47340(9) 0.0235(3) Uani 1 1 d .
H33 H 0.2580 0.4739 0.4898 0.028 Uiso 1 1 calc R
C34 C 0.32485(11) 0.34129(17) 0.45307(9) 0.0234(3) Uani 1 1 d .
H34 H 0.2825 0.2805 0.4514 0.028 Uiso 1 1 calc R
C35 C 0.40606(11) 0.31420(14) 0.43467(8) 0.0189(3) Uani 1 1 d .
C36 C 0.41658(12) 0.19754(15) 0.40466(9) 0.0237(3) Uani 1 1 d .
H36 H 0.3734 0.1377 0.4024 0.028 Uiso 1 1 calc R
C37 C 0.48952(13) 0.17412(14) 0.37956(9) 0.0239(3) Uani 1 1 d .
H37 H 0.4915 0.1037 0.3532 0.029 Uiso 1 1 calc R
C38 C 0.56346(11) 0.25661(14) 0.39327(8) 0.0193(3) Uani 1 1 d .
C39 C 0.64293(13) 0.22481(16) 0.37192(9) 0.0246(3) Uani 1 1 d .
H39 H 0.6428 0.1570 0.3430 0.030 Uiso 1 1 calc R
C40 C 0.71830(12) 0.29206(16) 0.39329(10) 0.0243(3) Uani 1 1 d .
H40 H 0.7676 0.2743 0.3756 0.029 Uiso 1 1 calc R
C41 C 0.72266(11) 0.39026(15) 0.44284(9) 0.0203(3) Uani 1 1 d .
C42 C 0.80576(12) 0.44612(18) 0.47540(11) 0.0255(3) Uani 1 1 d .
H42 H 0.8564 0.4254 0.4602 0.031 Uiso 1 1 calc R
C43 C 0.81216(11) 0.53048(17) 0.52915(11) 0.0265(4) Uani 1 1 d .
H43 H 0.8666 0.5677 0.5496 0.032 Uiso 1 1 calc R
C44 C 0.73597(11) 0.56036(16) 0.55319(9) 0.0215(3) Uani 1 1 d .
H44 H 0.7408 0.6147 0.5911 0.026 Uiso 1 1 calc R
C45 C 0.65422(10) 0.50966(14) 0.52095(8) 0.0166(3) Uani 1 1 d .
H45 H 0.6044 0.5311 0.5372 0.020 Uiso 1 1 calc R
C46 C 0.64425(10) 0.42599(13) 0.46383(8) 0.0158(2) Uani 1 1 d .
C47 C 0.56013(10) 0.36599(13) 0.43114(8) 0.0154(2) Uani 1 1 d .
C48 C 0.47332(9) 0.40521(13) 0.44054(7) 0.0145(2) Uani 1 1 d .
C49 C 0.49805(10) 0.63645(13) 0.43312(8) 0.0148(2) Uani 1 1 d .
C50 C 0.53191(10) 0.63703(14) 0.37195(8) 0.0167(3) Uani 1 1 d .
H50 H 0.5258 0.5683 0.3429 0.020 Uiso 1 1 calc R
C51 C 0.57456(11) 0.73972(14) 0.35439(9) 0.0199(3) Uani 1 1 d .
H51 H 0.5976 0.7387 0.3141 0.024 Uiso 1 1 calc R
C52 C 0.58315(11) 0.84432(16) 0.39668(10) 0.0227(3) Uani 1 1 d .
H52 H 0.6120 0.9127 0.3848 0.027 Uiso 1 1 calc R
C53 C 0.54841(11) 0.84559(15) 0.45643(10) 0.0231(3) Uani 1 1 d .
H53 H 0.5533 0.9153 0.4845 0.028 Uiso 1 1 calc R
C54 C 0.50619(11) 0.74270(14) 0.47449(8) 0.0191(3) Uani 1 1 d .
H54 H 0.4830 0.7445 0.5147 0.023 Uiso 1 1 calc R
loop_
_atom_site_aniso_label
_atom_site_aniso_U_11
_atom_site_aniso_U_22
_atom_site_aniso_U_33
_atom_site_aniso_U_23
_atom_site_aniso_U_13
_atom_site_aniso_U_12
C1 0.0157(6) 0.0149(6) 0.0146(6) 0.0004(5) 0.0019(5) 0.0009(5)
C2 0.0159(6) 0.0246(8) 0.0201(7) 0.0003(6) 0.0026(5) 0.0031(5)
C3 0.0160(7) 0.0331(9) 0.0231(7) 0.0003(7) 0.0039(6) -0.0031(6)
C4 0.0205(7) 0.0275(8) 0.0230(7) 0.0023(6) 0.0030(6) -0.0073(6)
C5 0.0223(7) 0.0168(7) 0.0178(6) 0.0019(5) 0.0011(5) -0.0038(5)
C6 0.0339(9) 0.0153(7) 0.0211(7) 0.0021(5) 0.0007(6) -0.0059(6)
C7 0.0389(10) 0.0120(7) 0.0210(7) 0.0003(5) -0.0001(7) 0.0015(6)
C8 0.0310(8) 0.0142(7) 0.0173(6) 0.0012(5) 0.0043(6) 0.0050(6)
C9 0.0443(11) 0.0177(7) 0.0237(8) 0.0029(6) 0.0148(8) 0.0134(7)
C10 0.0341(9) 0.0226(8) 0.0291(8) 0.0087(6) 0.0187(7) 0.0130(7)
C11 0.0212(7) 0.0193(7) 0.0248(7) 0.0104(6) 0.0117(6) 0.0092(6)
C12 0.0183(7) 0.0300(9) 0.0378(10) 0.0154(8) 0.0121(7) 0.0085(6)
C13 0.0144(7) 0.0300(9) 0.0341(9) 0.0118(7) 0.0023(6) -0.0006(6)
C14 0.0180(7) 0.0216(7) 0.0223(7) 0.0050(6) -0.0001(6) -0.0004(5)
C15 0.0152(6) 0.0160(6) 0.0160(6) 0.0034(5) 0.0026(5) 0.0020(5)
C16 0.0164(6) 0.0152(6) 0.0173(6) 0.0049(5) 0.0050(5) 0.0050(5)
C17 0.0196(6) 0.0128(6) 0.0142(6) 0.0027(5) 0.0039(5) 0.0018(5)
C18 0.0167(6) 0.0130(6) 0.0144(6) 0.0009(5) 0.0017(5) 0.0001(5)
C19 0.0146(6) 0.0117(6) 0.0156(6) 0.0012(5) -0.0008(5) 0.0021(5)
C20 0.0188(6) 0.0146(6) 0.0152(6) 0.0012(5) 0.0013(5) 0.0006(5)
C21 0.0183(7) 0.0199(7) 0.0197(6) 0.0040(5) 0.0017(5) -0.0006(5)
C22 0.0201(7) 0.0156(7) 0.0279(8) 0.0044(6) 0.0003(6) -0.0009(5)
C23 0.0229(7) 0.0128(7) 0.0275(8) -0.0032(6) -0.0010(6) -0.0003(5)
C24 0.0189(7) 0.0152(6) 0.0206(6) -0.0025(5) 0.0017(5) 0.0032(5)
C31 0.0138(6) 0.0164(6) 0.0136(6) 0.0001(5) 0.0017(5) 0.0007(5)
C32 0.0174(7) 0.0211(7) 0.0186(6) -0.0010(5) 0.0036(5) 0.0018(5)
C33 0.0156(7) 0.0331(10) 0.0223(7) 0.0004(7) 0.0054(5) -0.0009(6)
C34 0.0193(7) 0.0281(8) 0.0214(7) 0.0040(6) 0.0025(6) -0.0065(6)
C35 0.0201(7) 0.0179(7) 0.0167(6) 0.0027(5) 0.0006(5) -0.0027(5)
C36 0.0295(8) 0.0163(7) 0.0212(7) 0.0016(5) -0.0013(6) -0.0067(6)
C37 0.0377(9) 0.0116(6) 0.0195(7) -0.0007(5) 0.0019(6) 0.0005(6)
C38 0.0273(8) 0.0134(6) 0.0168(6) 0.0025(5) 0.0044(6) 0.0036(6)
C39 0.0379(9) 0.0175(7) 0.0202(7) 0.0033(6) 0.0107(7) 0.0109(6)
C40 0.0313(8) 0.0215(7) 0.0244(7) 0.0083(6) 0.0151(6) 0.0131(6)
C41 0.0198(7) 0.0195(7) 0.0236(7) 0.0084(6) 0.0095(6) 0.0059(5)
C42 0.0180(7) 0.0260(9) 0.0349(9) 0.0134(7) 0.0108(6) 0.0047(6)
C43 0.0153(7) 0.0267(8) 0.0353(9) 0.0103(7) 0.0025(6) -0.0018(6)
C44 0.0191(7) 0.0213(7) 0.0219(7) 0.0042(5) 0.0008(6) -0.0015(5)
C45 0.0151(6) 0.0160(6) 0.0179(6) 0.0034(5) 0.0024(5) 0.0016(5)
C46 0.0167(6) 0.0130(6) 0.0186(6) 0.0050(5) 0.0058(5) 0.0034(5)
C47 0.0190(6) 0.0123(6) 0.0147(6) 0.0023(5) 0.0040(5) 0.0024(5)
C48 0.0150(6) 0.0139(6) 0.0141(5) 0.0007(4) 0.0023(5) -0.0007(5)
C49 0.0129(6) 0.0130(6) 0.0168(6) 0.0004(4) 0.0008(5) 0.0015(5)
C50 0.0169(6) 0.0139(6) 0.0180(6) 0.0003(5) 0.0021(5) 0.0026(5)
C51 0.0208(7) 0.0166(7) 0.0222(6) 0.0047(5) 0.0050(5) 0.0010(5)
C52 0.0197(7) 0.0154(7) 0.0300(8) 0.0019(6) 0.0008(6) -0.0011(5)
C53 0.0226(8) 0.0147(7) 0.0284(8) -0.0042(6) -0.0003(6) -0.0003(5)
C54 0.0189(7) 0.0174(7) 0.0194(6) -0.0025(5) 0.0015(5) 0.0008(5)
loop_
_atom_type_symbol
_atom_type_description
_atom_type_scat_dispersion_real
_atom_type_scat_dispersion_imag
_atom_type_scat_source
C C 0.0033 0.0016 'International Tables Vol C Tables 4.2.6.8 and 6.1.1.4'
H H 0.0000 0.0000 'International Tables Vol C Tables 4.2.6.8 and 6.1.1.4'
loop_
_exptl_crystal_face_index_h
_exptl_crystal_face_index_k
_exptl_crystal_face_index_l
_exptl_crystal_face_perp_dist
0.00 0.00 -1.00 0.0900
0.00 0.00 1.00 0.0900
-1.00 0.00 0.00 0.1500
1.00 0.00 0.00 0.1600
1.00 0.00 -2.00 0.0600
-1.00 -2.00 0.00 0.0700
1.00 1.00 0.00 0.0700
-1.00 0.00 1.00 0.1500
loop_
_geom_angle_atom_site_label_1
_geom_angle_atom_site_label_2
_geom_angle_atom_site_label_3
_geom_angle
C2 C1 C18 118.74(14)
C2 C1 C19 117.02(13)
C18 C1 C19 123.61(13)
C1 C2 C3 122.14(16)
C4 C3 C2 119.46(16)
C3 C4 C5 120.36(15)
C4 C5 C18 120.78(15)
C4 C5 C6 119.59(15)
C18 C5 C6 119.48(15)
C7 C6 C5 120.63(16)
C6 C7 C8 120.59(16)
C17 C8 C7 120.09(16)
C17 C8 C9 119.61(16)
C7 C8 C9 120.25(16)
C10 C9 C8 121.19(16)
C9 C10 C11 120.48(16)
C12 C11 C16 119.72(16)
C12 C11 C10 120.73(16)
C16 C11 C10 119.38(16)
C13 C12 C11 121.08(16)
C12 C13 C14 119.68(16)
C15 C14 C13 120.29(17)
C14 C15 C16 121.58(14)
C15 C16 C11 117.48(14)
C15 C16 C17 122.76(13)
C11 C16 C17 119.42(14)
C8 C17 C16 117.50(14)
C8 C17 C18 117.90(14)
C16 C17 C18 124.43(13)
C5 C18 C1 117.06(14)
C5 C18 C17 117.55(14)
C1 C18 C17 125.27(13)
C20 C19 C24 118.06(14)
C20 C19 C1 120.83(13)
C24 C19 C1 120.99(14)
C21 C20 C19 121.18(14)
C20 C21 C22 119.98(16)
C23 C22 C21 119.51(15)
C24 C23 C22 120.48(16)
C23 C24 C19 120.78(15)
C32 C31 C48 118.89(14)
C32 C31 C49 116.95(13)
C48 C31 C49 123.59(13)
C31 C32 C33 122.28(15)
C34 C33 C32 119.26(16)
C33 C34 C35 120.12(15)
C34 C35 C48 120.39(15)
C34 C35 C36 119.03(15)
C48 C35 C36 120.38(15)
C37 C36 C35 120.09(15)
C36 C37 C38 120.69(15)
C47 C38 C37 120.26(15)
C47 C38 C39 119.98(15)
C37 C38 C39 119.68(15)
C40 C39 C38 120.94(15)
C39 C40 C41 120.53(15)
C42 C41 C46 119.69(16)
C42 C41 C40 120.47(15)
C46 C41 C40 119.66(15)
C43 C42 C41 120.73(16)
C42 C43 C44 119.73(16)
C45 C44 C43 120.39(16)
C44 C45 C46 121.56(14)
C45 C46 C41 117.71(14)
C45 C46 C47 122.99(13)
C41 C46 C47 118.98(14)
C38 C47 C46 117.73(14)
C38 C47 C48 117.84(14)
C46 C47 C48 124.18(13)
C35 C48 C31 117.50(13)
C35 C48 C47 117.15(13)
C31 C48 C47 125.23(13)
C54 C49 C50 118.27(14)
C54 C49 C31 120.76(13)
C50 C49 C31 120.83(13)
C51 C50 C49 120.43(14)
C50 C51 C52 120.58(16)
C53 C52 C51 119.48(16)
C52 C53 C54 120.13(15)
C53 C54 C49 121.08(15)
loop_
_geom_bond_atom_site_label_1
_geom_bond_atom_site_label_2
_geom_bond_distance
C1 C2 1.395(2)
C1 C18 1.436(2)
C1 C19 1.491(2)
C2 C3 1.404(3)
C3 C4 1.369(3)
C4 C5 1.408(3)
C5 C18 1.432(2)
C5 C6 1.435(2)
C6 C7 1.354(3)
C7 C8 1.426(3)
C8 C17 1.418(2)
C8 C9 1.433(3)
C9 C10 1.352(3)
C10 C11 1.426(2)
C11 C12 1.414(3)
C11 C16 1.426(2)
C12 C13 1.372(3)
C13 C14 1.409(2)
C14 C15 1.377(2)
C15 C16 1.419(2)
C16 C17 1.447(2)
C17 C18 1.452(2)
C19 C20 1.402(2)
C19 C24 1.403(2)
C20 C21 1.389(2)
C21 C22 1.395(2)
C22 C23 1.390(3)
C23 C24 1.388(2)
C31 C32 1.388(2)
C31 C48 1.432(2)
C31 C49 1.493(2)
C32 C33 1.402(2)
C33 C34 1.376(3)
C34 C35 1.418(2)
C35 C48 1.426(2)
C35 C36 1.431(2)
C36 C37 1.357(3)
C37 C38 1.430(2)
C38 C47 1.413(2)
C38 C39 1.432(2)
C39 C40 1.353(3)
C40 C41 1.430(2)
C41 C42 1.420(3)
C41 C46 1.425(2)
C42 C43 1.374(3)
C43 C44 1.407(3)
C44 C45 1.378(2)
C45 C46 1.411(2)
C46 C47 1.453(2)
C47 C48 1.462(2)
C49 C54 1.401(2)
C49 C50 1.402(2)
C50 C51 1.390(2)
C51 C52 1.395(2)
C52 C53 1.385(3)
C53 C54 1.392(2)
